ITEM: TIMESTEP
100000
ITEM: NUMBER OF ATOMS
8000
ITEM: BOX BOUNDS pp pp pp
-5.8674182434459254e-01 3.6136740824347577e+01
-5.8674182434459254e-01 3.6136740824347577e+01
-1.1734836486891851e+00 7.2273481648695153e+01
ITEM: ATOMS id type x y z
85 1 1.25035 1.41916 2.02146
83 1 3.74289 1.4728 0.375099
88 1 3.35452 2.82227 2.33202
7283 1 -0.360649 0.744269 0.331119
7208 1 36.0405 36.2384 2.3909
7288 1 -0.899767 2.85455 2.16601
2 1 1.35989 35.9532 0.912478
885 1 5.78306 1.33631 1.96048
883 1 7.12854 1.04801 0.170503
882 1 5.43455 3.20065 0.435455
888 1 7.30789 3.16065 2.03778
802 1 5.56138 -0.419186 0.403241
1685 1 9.35557 0.962747 2.0389
1683 1 11.2419 1.0616 0.167384
1682 1 9.09122 2.65169 0.492182
1688 1 10.8377 3.08643 1.88396
6344 1 28.8464 32.789 16.5609
2485 1 12.707 1.27386 2.08517
2483 1 14.2922 1.1112 -0.15146
2488 1 14.2125 3.11195 1.81356
2482 1 12.7018 3.05232 -4.45692e-05
2408 1 14.018 -0.635368 1.676
2402 1 12.4244 36.0644 -0.230672
3285 1 16.2007 1.35558 1.86093
3283 1 18.0946 1.35242 0.372409
3288 1 18.271 3.29905 2.22325
3282 1 16.3605 3.28172 -0.00568692
3202 1 16.1347 -0.608415 0.381236
4082 1 19.7584 3.51086 0.38286
4085 1 20.011 1.24949 2.30471
4083 1 21.5593 1.41838 0.491829
4885 1 23.4247 1.04234 2.14247
4882 1 23.3711 3.07021 -0.378305
4088 1 21.692 3.24056 2.14562
4802 1 23.2426 -0.711918 0.195307
4883 1 25.2411 1.21731 0.0240724
5685 1 26.8885 1.12749 1.72276
4888 1 25.1807 2.97843 1.97115
4808 1 24.9381 35.6428 1.82911
5602 1 26.8913 35.8335 0.0825824
5763 1 28.9575 1.23539 0.25842
5688 1 28.6027 3.12359 1.78437
6485 1 30.7041 1.29883 2.15383
6482 1 30.5405 2.82775 0.47526
6402 1 30.731 36.1014 0.0995542
5608 1 28.7435 -0.626951 2.04716
6483 1 32.4743 1.01255 0.596235
7285 1 34.3546 1.13531 2.61913
7202 1 34.1379 -0.640797 0.619417
6408 1 32.2581 -0.43454 2.52726
7282 1 34.2621 3.07635 0.474899
82 1 1.84749 2.55297 -0.262771
165 1 1.57693 4.64018 2.03174
168 1 3.53113 6.76019 2.03073
162 1 1.78464 6.41855 0.423625
7368 1 -0.336813 6.39186 2.05672
7363 1 -0.234047 4.55188 0.145106
163 1 3.82743 4.80809 0.503399
965 1 5.35866 5.27177 2.16214
962 1 5.63555 7.11016 0.227992
963 1 7.49782 5.073 0.260708
968 1 7.34565 6.87995 1.74377
5619 1 28.9435 34.3025 14.4856
1765 1 8.99121 4.85646 2.10683
1845 1 9.34015 6.92792 0.551388
1763 1 10.7682 4.78485 0.333588
1768 1 11.049 6.75413 2.44231
7938 1 34.4908 32.4539 14.393
7221 1 34.5677 34.7551 16.4768
2562 1 12.4107 6.98128 0.294179
2565 1 12.2819 4.94066 1.85967
2563 1 13.9643 4.97412 0.195825
2568 1 14.664 6.87334 2.21866
7217 1 34.4529 34.6766 12.5774
3362 1 16.3103 6.82307 0.257846
3365 1 16.396 4.86026 2.24683
3363 1 17.749 5.06939 0.370293
3368 1 17.9214 7.16428 1.73201
4165 1 20.5135 5.23277 1.91796
3366 1 16.5849 6.90947 3.76394
4162 1 20.0687 7.03673 0.0160139
4163 1 21.8743 4.83999 0.0305921
4167 1 23.5557 5.05375 1.81709
4168 1 21.8056 7.0355 2.11764
4962 1 23.53 6.87057 -0.080463
4968 1 26.5566 3.35318 0.0656771
5599 1 25.0268 6.90954 1.88205
4965 1 24.8685 5.00773 -0.385719
4967 1 26.6279 4.91082 2.08214
5762 1 26.6244 6.87542 0.382956
5765 1 28.9168 4.76925 0.0243566
5847 1 28.9411 6.8773 1.92644
6565 1 30.4265 4.64331 1.81392
5768 1 30.4915 6.60168 0.0792744
6488 1 32.4455 3.25263 2.52081
6563 1 32.5624 4.52979 0.417764
6568 1 32.368 6.56356 1.32086
7365 1 34.535 5.0133 2.49042
7362 1 34.2289 6.6877 0.357936
245 1 1.53206 8.38022 1.87517
248 1 3.52021 10.3939 1.81827
242 1 2.03483 10.5923 -0.18354
7443 1 -0.290176 8.26084 0.659388
7448 1 -0.160139 10.4649 1.51526
243 1 3.68877 8.90583 0.0225596
1042 1 5.41784 10.5478 -0.0556234
1045 1 5.26144 8.46863 2.13207
1043 1 7.48818 8.82944 0.335514
1048 1 7.04262 10.5434 2.16102
1842 1 8.86771 10.6121 0.556286
1849 1 9.19904 8.88592 2.3742
1843 1 10.7892 8.93948 0.598131
1848 1 10.7617 10.5751 2.29258
2645 1 12.6961 8.72982 2.16958
2642 1 12.5237 10.7807 0.362176
2643 1 14.1738 8.94219 0.208724
2648 1 14.3634 10.6794 1.89747
3442 1 16.1554 10.7661 -0.0676124
3445 1 16.0203 9.04597 1.73647
3443 1 18.3921 8.65849 -0.0278897
3448 1 17.9602 10.4707 1.64383
4242 1 20.1155 10.9819 0.226573
4245 1 19.8845 9.0921 1.7767
4248 1 21.4834 10.765 2.11985
4243 1 21.7407 9.06142 0.316312
5045 1 23.5862 9.1819 1.86801
5042 1 23.459 10.9585 0.360503
5043 1 25.2509 8.77479 0.0903774
5048 1 25.3857 10.6245 1.961
5845 1 27.3356 8.78563 2.00836
5842 1 27.0744 10.4804 0.252652
5848 1 28.7774 10.4604 1.70165
5843 1 28.5904 8.34366 0.18658
6645 1 30.5839 8.67887 1.79805
6642 1 30.5514 10.3088 0.314187
6643 1 32.5516 8.7595 0.0830902
6648 1 32.6687 10.5072 1.80505
7445 1 34.4856 8.44804 1.73556
7442 1 34.6014 10.6227 0.0175965
325 1 1.57745 12.1858 1.74145
323 1 3.45302 12.136 0.0213449
322 1 1.551 14.1404 0.311269
7523 1 -0.0946444 12.4878 0.137589
328 1 3.30022 14.2611 2.04334
1122 1 5.31068 13.7405 0.168634
1125 1 5.62378 12.3594 1.89865
1123 1 7.31372 12.1557 0.14858
1128 1 7.18926 14.1149 1.89323
7144 1 32.6718 32.8044 16.6775
1923 1 10.5601 12.4007 0.169326
1922 1 8.54354 14.1116 0.0380179
1925 1 8.78239 12.2574 1.99305
1928 1 10.3075 14.0957 2.13668
2722 1 12.3176 14.4886 0.097302
2725 1 12.3124 12.4107 1.8962
2723 1 14.2979 12.2953 0.229288
2728 1 14.2121 14.0009 1.55644
6419 1 32.7651 34.3566 14.8701
6424 1 32.8513 -0.398502 16.2719
3522 1 16.1773 14.7176 0.1194
3525 1 16.2693 12.29 1.98309
3523 1 17.8255 12.7846 0.147157
3528 1 17.9287 14.2948 2.07346
4325 1 19.6284 12.653 1.96026
4322 1 19.6776 14.1869 0.406385
4323 1 21.8721 12.6682 0.30225
4328 1 21.5946 14.2488 1.87916
5125 1 23.5624 12.4814 2.35148
5122 1 23.6523 14.1416 0.107509
5925 1 27.192 12.4895 1.81336
5123 1 25.3796 12.5338 0.487145
6003 1 25.0793 14.3031 2.17198
5922 1 26.9685 14.4432 0.655825
5923 1 28.9321 12.2403 -0.184832
5928 1 29.071 14.4022 1.71937
6725 1 30.7314 12.5084 1.83387
6722 1 30.6361 14.0956 0.0722106
6726 1 31.2964 13.8478 3.69353
7528 1 36.3488 14.5978 1.9743
6728 1 32.8329 13.9452 1.78477
6723 1 32.8445 12.385 0.11742
7525 1 34.7537 12.3638 1.87506
7522 1 34.5999 14.3312 0.183211
6727 1 33.1105 12.423 3.66734
7603 1 -0.7685 16.5281 0.430709
405 1 1.30058 16.0443 1.93954
402 1 1.52209 17.8984 0.399042
7683 1 36.4039 19.6063 -0.216711
7608 1 -0.234449 18.3351 1.81416
408 1 3.2418 17.9785 2.05747
403 1 3.47318 15.923 0.532785
483 1 3.36783 19.6595 0.329647
1205 1 5.085 15.8991 2.39104
1203 1 7.16548 16.5016 0.181563
1202 1 5.27206 17.7786 0.465598
1208 1 7.09308 18.01 2.22925
1283 1 6.82298 19.6366 0.171182
2005 1 8.7751 15.7822 1.76303
2003 1 10.4435 16.0536 0.0788306
2002 1 8.95859 18.1045 -0.193449
2008 1 10.4897 17.6339 1.99587
2085 1 8.85261 19.5764 2.10915
2083 1 10.4972 19.5295 0.161983
2803 1 14.4673 16.5358 0.278887
2805 1 12.4012 16.2586 2.22734
2802 1 11.96 17.394 -0.353964
2808 1 14.4767 18.1325 1.81332
2885 1 12.3355 19.3449 1.971
3602 1 16.2819 18.1387 0.322205
3603 1 17.9347 16.2363 0.190616
3605 1 16.0448 16.3117 2.15053
3608 1 18.0967 18.1112 1.80901
3683 1 17.9543 20.3292 -0.193762
4405 1 19.3505 16.0994 1.92189
4402 1 19.6587 17.993 -0.0117931
5205 1 23.1572 16.0291 1.9846
4403 1 22.0584 16.1832 0.0389871
4408 1 21.1796 18.1085 1.97544
5202 1 23.392 18.0108 0.237679
6005 1 27.1172 16.3527 1.95212
5128 1 25.524 16.2206 -0.24169
5208 1 25.0295 17.7163 1.89246
6002 1 26.7928 18.1299 0.0259128
6085 1 26.9893 19.658 1.95137
5283 1 25.46 19.7804 0.0490153
561 1 29.065 16.1136 0.156163
6805 1 30.7636 15.884 2.05659
6008 1 28.9667 17.691 2.18147
6802 1 30.602 17.7893 0.362277
6885 1 30.5411 19.314 2.33573
6083 1 29.0535 19.6333 0.346788
6421 1 30.8254 34.4016 16.3192
7605 1 34.4102 16.1501 2.19322
6808 1 32.2709 17.7311 2.03
6803 1 32.5987 16.0272 0.428261
7602 1 34.2527 17.8193 0.0850285
6883 1 32.6399 19.6134 0.164922
485 1 1.19139 19.8435 1.72083
482 1 0.945605 21.4698 -0.190587
565 1 1.61617 23.1207 2.0868
488 1 3.14018 21.4189 1.97827
563 1 3.05164 23.2555 0.339343
7688 1 -0.477288 21.4603 1.59468
7763 1 -0.0983984 23.396 0.159892
1285 1 5.18689 19.6177 2.30495
1282 1 5.24683 21.4754 0.304912
1288 1 7.15211 21.3347 2.06737
1363 1 6.91105 23.5462 0.0370829
1365 1 4.78187 23.1044 1.89194
2082 1 8.9798 21.4717 0.0901457
2165 1 8.67315 22.9521 1.99982
2088 1 10.4725 21.4048 2.11612
2163 1 10.5147 23.0648 0.0210029
7138 1 30.695 32.6689 14.6544
2883 1 13.9258 19.5749 -0.207373
2882 1 12.1356 21.3221 0.18339
2965 1 12.2409 23.1165 2.26998
2888 1 14.2308 21.3977 1.84033
2963 1 13.9731 23.1273 0.125141
3685 1 16.3112 19.9014 1.9053
3765 1 15.7579 23.2061 2.12906
3682 1 15.9392 21.6874 0.021047
3688 1 18.0787 21.6927 2.17
4485 1 19.8744 19.913 1.81401
4565 1 19.6214 23.5272 1.89348
3763 1 17.8894 23.4267 -0.149287
5285 1 23.349 19.6898 2.01715
4483 1 21.9735 20.0328 0.0936214
4482 1 19.8326 21.8355 0.14906
4488 1 21.5604 21.742 1.69024
5282 1 23.603 22.0213 -0.208172
4563 1 21.4168 23.467 0.257808
5365 1 23.7926 23.4749 1.98105
5288 1 25.0715 21.4082 1.80511
6082 1 27.3604 21.644 -0.109245
5363 1 25.7904 23.5131 0.048858
6165 1 27.3472 23.4608 2.16647
6088 1 28.6419 21.3155 1.74185
6882 1 30.9431 21.211 0.581166
6163 1 29.3843 23.7203 -0.199307
3829 1 30.2639 23.3063 1.95863
7685 1 34.6932 19.7228 1.99326
6963 1 32.5652 23.216 0.3853
6888 1 32.7748 21.2249 2.07948
7682 1 34.3791 21.5268 0.0702632
6886 1 34.396 23.4154 2.19163
562 1 1.56689 25.077 0.204727
645 1 1.28992 26.8052 1.63399
643 1 3.233 26.9483 0.315898
568 1 3.44841 25.2056 1.85326
7843 1 -0.275537 27.1336 -0.0897037
1362 1 5.09297 25.4283 0.330883
1445 1 5.01911 27.2343 2.18575
1368 1 6.78196 25.0619 1.92479
1443 1 6.91766 27.1528 0.230041
2245 1 8.79442 27.1127 2.07393
2162 1 8.86188 24.9419 0.274457
2168 1 10.3938 24.9622 2.11459
2243 1 10.2115 26.9681 0.316282
2962 1 12.0161 24.7852 0.37548
3045 1 12.2283 26.606 2.03163
2968 1 14.0624 24.9481 1.9465
3043 1 13.9649 26.8164 0.109714
3762 1 15.8071 24.8287 0.160453
3845 1 15.678 26.8039 2.00565
3768 1 17.7821 24.7923 1.8963
3843 1 17.4664 26.4997 0.00462254
4642 1 19.7539 26.2276 1.9288
4562 1 19.5808 25.2118 -0.243011
4568 1 21.6876 24.9127 1.93282
5362 1 23.4137 24.9371 -0.060582
5445 1 23.6281 26.9331 2.03845
4643 1 22.0517 26.7759 -0.127945
5443 1 25.384 26.8784 0.257225
5368 1 25.4059 25.0605 2.38141
6162 1 27.1539 25.3961 0.453986
6245 1 27.2054 27.1325 2.53673
6243 1 28.7888 27.1636 0.473481
6168 1 28.9676 25.1061 2.09503
6962 1 30.9636 25.2933 0.0170905
7045 1 30.693 26.9726 1.97661
6966 1 30.2713 25.2499 4.17099
7768 1 -0.22387 25.0237 1.99283
7047 1 32.656 26.8706 0.274592
6968 1 32.1793 24.8512 1.955
7762 1 34.5279 24.9421 0.24144
7845 1 34.9179 27.0161 1.84371
723 1 3.60479 31.2319 0.450072
7923 1 1.51509 30.6949 2.16962
725 1 1.36014 28.9742 0.0247512
1448 1 3.28515 29.3092 2.21673
7848 1 -0.426532 29.2486 1.93044
1525 1 5.24045 30.6866 2.04831
1442 1 5.11714 28.8403 0.503189
2325 1 6.91917 28.7894 1.91477
1523 1 7.11575 30.6395 0.13669
1528 1 6.95643 32.3097 2.21363
2242 1 8.88156 28.7817 0.0480713
807 1 8.36994 30.4982 1.88753
2248 1 10.8623 28.8201 2.1801
2323 1 10.6559 30.704 0.340168
2322 1 8.76782 32.376 0.404649
3125 1 12.5508 30.5647 2.16092
3042 1 12.2747 28.549 0.350039
3048 1 14.0845 28.3489 1.8007
3123 1 13.9235 30.4424 0.180089
3925 1 16.2381 30.4896 1.65264
3842 1 15.9925 28.5636 0.39546
3848 1 18.1667 28.3157 2.0005
3923 1 17.8752 30.126 -0.156726
4725 1 19.6049 30.3563 1.66966
4721 1 19.5932 28.1002 -0.498661
4723 1 21.0543 30.0939 0.254912
4648 1 21.7186 28.6185 1.74637
5442 1 23.8146 28.895 0.137806
5525 1 23.4153 30.8268 1.93366
6340 1 28.8792 32.4218 12.4735
5523 1 25.2433 30.5467 -0.00738133
5448 1 25.2516 28.7629 1.7964
6242 1 26.9635 28.6882 -0.0624885
6325 1 26.8731 30.4978 1.93876
6248 1 29.0453 29.0053 2.15984
6323 1 28.745 30.7904 0.53526
7042 1 30.863 28.8341 0.434208
7125 1 31.0266 30.628 2.1791
7842 1 -0.405371 30.9727 0.145522
7123 1 32.9519 30.5943 0.554754
7048 1 32.9064 28.6889 2.219
7043 1 34.7632 29.0968 0.0993171
7925 1 34.639 30.7399 2.24194
722 1 1.89487 32.8033 0.55996
728 1 3.57415 32.2049 2.4901
1 1 3.6336 34.1812 0.413419
5 1 1.29111 34.4338 2.5795
8 1 3.53028 -0.389253 1.76638
7928 1 -0.268871 32.4172 2.31145
7203 1 -0.507665 34.4107 0.560003
808 1 7.15637 -0.3715 2.24523
1522 1 5.48275 32.6325 0.269135
3 1 5.24965 34.7707 2.20047
2326 1 7.25514 34.1129 0.617949
1602 1 8.82126 36.271 0.276722
1608 1 11.2232 36.0864 1.98116
1605 1 9.0268 34.5957 2.1656
1603 1 10.9193 33.9926 0.556817
2328 1 10.3015 32.1382 2.18893
1607 1 10.7463 34.3892 3.64536
3122 1 12.6834 32.5178 0.144237
2405 1 12.6675 34.1958 2.04294
3128 1 14.2652 32.1192 1.75953
2403 1 14.1213 34.4651 0.319903
3208 1 17.9579 36.149 1.86215
4002 1 19.5467 -0.681033 0.332481
3922 1 15.9803 32.2896 0.130441
3205 1 15.9252 34.0335 1.69641
3203 1 17.8917 34.1504 0.18984
3928 1 17.8112 32.3754 1.84058
3926 1 16.2273 32.7045 3.47275
4008 1 21.8218 36.3691 1.99066
4005 1 20.0306 34.2643 1.72088
4722 1 19.6693 32.1788 0.0147666
4728 1 21.6096 32.1527 1.53807
4003 1 21.2975 33.9765 -0.2924
4805 1 22.8589 34.1076 1.79808
5522 1 23.6206 32.4251 -0.187655
5528 1 25.2198 32.5656 1.80563
6322 1 27.1129 32.3289 -0.0711535
4803 1 25.0706 34.1462 0.0454473
5605 1 27.0563 34.2814 1.75743
6328 1 29.0776 32.5111 2.25601
7122 1 31.0705 32.293 0.576386
5603 1 29.3771 34.0007 0.19348
6405 1 30.7691 34.389 2.33444
7128 1 33.0224 32.5345 2.25657
6403 1 32.4942 34.5967 0.49492
7922 1 34.3724 32.8475 0.0745793
7205 1 34.2562 34.4722 2.25211
89 1 1.23951 1.35243 5.87421
91 1 3.18091 1.58934 7.20048
87 1 3.33395 1.24068 4.01325
92 1 3.29376 3.07832 5.40444
7287 1 -0.293163 1.23405 3.73441
7292 1 36.5596 2.90925 6.04422
86 1 1.288 3.02514 3.90214
12 1 3.60708 -0.486188 5.78907
806 1 5.35228 -0.184595 3.93773
887 1 7.14615 1.53924 3.70556
886 1 4.99807 3.07568 4.06511
803 1 5.2625 1.45818 5.86033
889 1 7.07069 1.43803 7.32266
892 1 6.95989 3.54927 5.39636
890 1 5.13261 3.31522 7.48076
812 1 7.15346 -0.605666 5.73062
1686 1 8.90803 2.89372 3.68237
1689 1 8.97808 1.32435 5.53735
1687 1 11.0378 0.904249 3.67509
1691 1 10.8349 1.76161 7.119
1692 1 10.4633 3.23168 5.47266
891 1 8.86927 3.43638 7.36285
1612 1 10.7798 -0.230985 5.70975
2489 1 12.4173 1.69309 5.56652
2487 1 14.3491 1.51012 3.78932
2491 1 14.1384 1.46822 7.36685
2486 1 12.3681 2.97438 3.72608
2492 1 14.1775 3.1924 5.65237
2406 1 12.4467 -0.63918 4.15977
3287 1 17.694 1.08488 3.67396
3286 1 16.0604 2.8547 3.50615
3289 1 15.7413 1.53698 5.70249
3291 1 18.1109 1.5588 7.41879
4090 1 19.7355 3.38768 7.43396
4010 1 19.279 -0.473448 7.45577
4089 1 19.6332 1.51856 5.4165
4006 1 19.8801 -0.470905 3.84386
3290 1 16.2153 3.03859 7.36911
4087 1 21.758 1.50161 4.27996
4889 1 23.4749 0.971325 5.73082
4091 1 21.4536 1.54835 7.5037
4886 1 23.5158 3.37655 3.86749
4012 1 21.4579 -0.171242 6.08594
4810 1 23.3793 36.3354 7.79217
4887 1 24.9978 1.21959 3.94978
5689 1 27.001 1.30302 5.73894
4892 1 25.3434 3.06036 5.84999
4891 1 25.2476 1.43052 7.4363
5686 1 27.0961 3.09282 3.58562
5616 1 26.85 36.3611 7.82755
5606 1 26.54 35.9692 3.54424
5690 1 27.093 3.13934 7.50828
5610 1 25.3705 -0.387765 5.71633
5687 1 28.4106 1.08116 3.78318
6489 1 30.4836 1.49962 5.52189
5691 1 28.8787 1.27991 7.26718
6490 1 30.6435 3.31262 6.95315
5612 1 28.479 -0.749515 5.74132
5692 1 28.6506 3.36235 5.72039
6487 1 32.2675 1.40413 3.94127
6492 1 32.5328 3.05103 5.34166
7291 1 36.1725 1.38193 7.51535
7289 1 34.6036 1.45745 5.75369
7290 1 34.3921 3.14965 7.18581
6491 1 32.6453 1.64609 7.23036
7286 1 34.4581 3.25298 3.85235
7212 1 -0.58211 36.2851 5.94991
90 1 1.53714 3.05311 7.82559
169 1 1.54903 4.79243 5.80672
172 1 3.52445 6.65715 5.36727
170 1 1.30416 6.9141 6.84287
166 1 1.83766 6.5004 3.66839
167 1 3.23039 4.67833 3.44037
7371 1 -0.654056 5.24153 7.00949
7372 1 -0.539863 6.93955 5.26288
7367 1 -0.305456 4.5475 3.96175
171 1 3.38691 5.24931 7.57537
966 1 5.30867 6.80073 3.93024
967 1 7.30087 5.1436 3.78619
969 1 5.07878 4.87902 5.85909
972 1 7.07352 6.9013 5.94727
971 1 7.30384 4.97465 7.09238
970 1 5.08128 6.97305 7.50428
1767 1 10.9293 4.99851 3.83807
1766 1 8.71255 6.98166 3.70727
1853 1 8.83971 6.69313 7.51123
1769 1 9.20476 5.19287 5.44688
1772 1 10.8714 6.8923 5.76473
1771 1 10.8564 5.20245 7.45527
2566 1 13.0577 7.01785 3.74115
2490 1 12.4357 3.33137 7.37425
2569 1 12.3764 5.12228 5.64826
2567 1 14.7054 4.92895 3.98468
2572 1 14.9729 6.82669 5.51234
2571 1 14.5678 4.95741 7.57047
2570 1 12.9836 6.86628 7.14866
3292 1 18.0786 3.38821 5.70917
4086 1 19.8164 3.14418 3.93227
3367 1 18.4115 4.9252 4.00891
3369 1 16.2974 4.87077 5.66776
3370 1 16.4708 6.89793 7.05693
3372 1 18.4262 7.01439 5.58526
3371 1 18.3167 5.30087 7.53018
4170 1 20.3717 5.22455 5.91537
4169 1 21.8296 5.41901 3.78606
4092 1 22.0518 3.39938 5.77141
4890 1 23.8027 3.00468 7.53333
4176 1 19.9991 7.30453 7.27499
4166 1 19.7424 6.84435 3.63472
4969 1 23.8341 4.90805 5.73887
4171 1 21.9676 4.55935 7.55428
4970 1 23.4287 6.90536 7.40129
4172 1 21.4486 7.30361 5.39353
4966 1 23.5278 6.99092 4.003
2319 1 27.009 6.84572 3.92611
4972 1 25.0793 5.11505 3.83521
4971 1 25.6992 4.81524 7.33608
5766 1 25.3947 7.10215 6.08163
5769 1 27.0753 5.2601 5.60329
5770 1 27.2478 6.75368 7.48035
6486 1 30.5205 3.11153 3.98051
6566 1 30.6601 6.79478 3.3832
5767 1 28.6381 4.87754 3.39081
5772 1 28.7881 7.20632 5.39125
6569 1 30.6495 5.2318 5.18909
6570 1 30.7102 6.78825 6.87123
5771 1 28.943 4.98153 7.62434
6572 1 32.4262 7.07285 5.59608
6571 1 32.4212 5.1909 7.23557
6567 1 32.53 5.32885 3.71098
7369 1 34.3728 5.13268 5.24991
7366 1 34.176 7.13396 3.61515
7370 1 34.5017 6.9125 7.29176
246 1 1.54261 10.1002 3.32981
247 1 3.21798 8.57314 4.01612
249 1 1.48316 8.73044 5.3436
250 1 1.57367 10.3563 7.47258
251 1 3.0605 8.62572 7.21606
252 1 2.93604 10.611 5.36056
7452 1 -0.080845 10.5507 5.46294
7447 1 -0.424739 8.53513 3.67896
7451 1 -0.322234 8.79239 7.10737
1046 1 4.90452 10.4076 3.79582
1047 1 6.95304 8.69072 4.02387
1050 1 4.69595 10.5801 7.39713
1049 1 5.00898 9.12974 5.73104
1052 1 6.92983 10.6065 5.59233
1051 1 6.72758 8.80913 7.2543
1846 1 8.83069 10.3784 4.08886
1850 1 8.492 10.521 7.3146
1847 1 10.9754 8.564 4.08316
1770 1 9.0197 8.74353 5.67145
1852 1 10.7497 10.5993 5.75915
1851 1 10.5111 9.07676 7.60003
2647 1 14.6453 8.56119 3.87088
2646 1 12.7512 10.743 3.92998
2650 1 12.6044 10.8716 7.35529
2649 1 13.0218 8.80872 5.58172
2652 1 14.685 10.6392 5.74893
2651 1 14.6695 8.58602 7.2801
3447 1 18.2646 8.71596 3.41745
3449 1 16.6174 8.8403 5.45024
3446 1 16.4173 10.5314 3.99536
3450 1 16.3856 10.7869 7.19336
3452 1 18.2823 10.5419 5.32492
3451 1 18.0674 8.70779 7.39619
4250 1 19.8678 10.5141 7.27103
4246 1 19.7379 10.5366 3.54437
4247 1 21.71 8.91351 3.61263
4249 1 20.0147 8.90716 5.34538
5046 1 23.4807 10.5783 3.78257
4252 1 21.5826 10.6747 5.48468
5049 1 23.4075 8.5815 5.56346
4251 1 21.7822 9.03186 7.48154
5050 1 23.443 10.6771 7.4889
5047 1 25.3988 8.71224 3.933
5052 1 25.0917 10.4924 5.5172
4321 1 26.9309 9.00089 5.68628
5849 1 27.2613 10.8333 3.635
5850 1 26.797 10.7938 7.28493
5051 1 25.5569 8.76537 7.63571
6646 1 30.3826 10.8763 3.39446
5851 1 28.6766 8.78287 7.32722
5852 1 29.0137 10.7381 5.64342
5846 1 28.7666 9.04804 3.82232
6649 1 30.9409 8.872 5.36826
6650 1 31.0354 10.4096 7.08068
6647 1 32.4 8.89609 3.48006
6651 1 32.5762 8.32608 7.25458
6652 1 32.3651 10.4574 5.10616
7449 1 34.2618 8.75934 5.53617
7446 1 34.5834 10.2252 3.42198
7450 1 34.518 10.8027 7.16593
326 1 1.2559 14.0429 3.51659
329 1 1.53783 12.276 5.73081
330 1 1.22527 14.1255 7.3397
7527 1 -0.241284 12.0786 3.91325
327 1 3.07816 12.2281 3.6205
331 1 3.13238 12.3392 7.74507
332 1 3.02902 14.4888 5.39218
1126 1 5.22309 13.9572 3.7668
1127 1 7.04314 12.3896 4.10592
1129 1 4.85514 12.2121 5.50893
1131 1 6.83587 12.2726 7.18594
1132 1 6.79824 14.4359 5.65891
1130 1 4.97506 14.4098 7.23507
1929 1 8.99671 12.3714 5.79601
1931 1 10.8285 12.409 7.34553
1926 1 8.57329 13.8789 4.07688
1927 1 10.743 12.4082 3.67991
1932 1 10.446 14.2252 5.55559
1930 1 8.66016 14.2159 7.79421
2727 1 14.5388 12.401 3.5273
2730 1 12.5115 14.1968 7.35031
2726 1 12.6799 13.7694 3.81133
2729 1 12.902 12.3398 5.603
2731 1 14.3913 12.5733 7.62621
2732 1 14.3912 14.5813 5.70651
3526 1 15.8431 14.3295 3.85169
3529 1 15.7878 12.6297 5.42588
3530 1 16.0974 14.0326 7.20385
3527 1 17.7968 12.3874 3.74435
3531 1 18.0662 12.2555 7.25894
3532 1 17.7478 14.335 5.42641
4326 1 19.6718 14.4991 3.67955
4330 1 19.5903 14.1445 7.3269
5126 1 23.2432 14.6203 3.64358
4329 1 19.5741 12.5466 5.45721
4327 1 21.5682 12.5789 3.92621
4332 1 21.687 13.9932 5.63276
5129 1 23.3769 12.3293 5.67531
4331 1 21.4015 12.439 7.25291
5130 1 23.6571 14.4001 6.95087
5209 1 23 16.2035 5.59939
5926 1 27.2196 14.3432 3.5692
5131 1 25.3251 12.5669 7.53375
5132 1 25.4571 14.1868 5.3686
5127 1 25.2658 12.4717 3.79047
5929 1 27.0112 12.427 5.40319
5930 1 27.0895 14.5081 7.5615
5927 1 29.066 12.7139 3.56457
5932 1 28.6088 14.3692 5.6149
5931 1 28.8518 12.422 7.27294
6729 1 30.3302 12.8425 5.52017
6730 1 30.8851 14.496 7.40164
6809 1 30.6687 16.0742 5.65247
7531 1 36.3224 12.2094 7.56701
7532 1 -0.481421 14.1138 5.81605
7526 1 34.6406 14.0937 4.1236
6731 1 32.6651 12.4066 7.71269
6732 1 32.8147 13.9366 6.02581
7529 1 35.0011 12.1128 5.23217
7530 1 34.4462 14.3451 7.5952
7609 1 34.4039 16.0039 5.75394
409 1 1.34151 16.0531 5.87064
411 1 3.14973 16.0734 7.59811
7607 1 36.3192 16.1484 3.95298
406 1 1.4427 17.6917 3.88731
412 1 3.31722 17.6841 5.80243
410 1 1.50444 18.3118 7.33991
489 1 1.50295 19.7187 5.46688
7692 1 36.1654 19.5612 7.14934
7611 1 -0.258907 16.2268 7.56738
491 1 3.38101 20.0763 7.4113
7612 1 -0.35414 17.7892 5.4517
487 1 3.24415 19.6477 3.69674
7687 1 36.3751 19.9576 3.58767
407 1 3.11185 16.0334 3.96997
1209 1 5.11275 15.8603 5.31411
1207 1 7.02961 15.6769 3.79974
1206 1 5.25295 17.8027 4.11309
1211 1 7.36974 16.0705 7.486
1212 1 6.70197 17.6025 5.66041
1210 1 5.13703 17.6357 7.22098
1289 1 4.98813 19.8175 5.67053
1287 1 7.17271 19.589 4.00103
2089 1 6.97278 19.4754 7.38381
2011 1 10.8448 16.1468 7.22873
2007 1 10.7573 15.777 3.69929
2087 1 10.4471 19.7314 3.71614
2009 1 8.53741 16.0587 5.51881
6641 1 8.97399 17.5827 3.78237
2010 1 8.76465 17.6528 7.18482
2012 1 10.9763 18.1664 5.73906
2006 1 8.74538 19.3807 5.64238
2091 1 10.4634 19.5739 7.47251
2811 1 14.0081 16.2018 7.89073
2806 1 12.4209 17.9799 3.80414
2807 1 14.2868 16.2044 3.76099
2809 1 12.4356 16.1886 5.50114
2810 1 12.3354 17.7837 7.69924
2812 1 14.163 17.8134 5.71776
2891 1 13.9438 19.9734 7.40465
2889 1 12.4904 19.7078 5.54569
3611 1 17.6766 16.2197 7.30948
3606 1 15.9885 18.2759 3.87453
3609 1 16.1911 16.3876 5.66854
3610 1 15.6951 18.1362 7.29646
3607 1 17.8701 16.3795 3.82754
3612 1 18.0639 18.124 5.7193
3687 1 18.034 19.4505 3.84119
4410 1 19.6606 18.2633 7.52373
4409 1 19.6805 16.1287 5.62216
3689 1 15.8798 19.6009 5.63363
4489 1 19.6906 19.6993 5.54014
3691 1 17.9181 19.7296 7.68313
4406 1 19.6849 17.844 3.74302
4407 1 21.5105 16.1872 3.4088
4411 1 21.4245 16.0719 7.45412
4412 1 21.6475 18.0022 5.36209
5206 1 23.6265 18.0023 3.57537
4491 1 21.6613 19.7981 7.1306
5210 1 23.0609 17.7451 7.65713
5289 1 23.519 19.9171 5.72208
4487 1 21.2911 20.0617 3.72791
5207 1 25.0758 15.9247 3.96366
6009 1 27.0076 15.8637 5.48495
6006 1 26.8406 17.9599 3.99401
5211 1 25.3776 16.258 7.15002
5212 1 25.4101 18.1128 5.65693
6010 1 27.7327 17.8584 7.39319
5291 1 25.4713 19.4343 7.43654
6011 1 29.1066 15.889 7.60317
6007 1 29.0455 15.8169 3.59863
6806 1 30.9957 17.4814 3.75094
6012 1 28.8478 17.673 5.38849
6810 1 30.6532 17.7416 7.13638
6091 1 28.6745 19.8154 7.43028
6087 1 28.611 19.7842 3.7453
6889 1 30.4284 19.3194 5.16556
6807 1 33.076 15.6402 3.86167
6811 1 32.7035 16.2909 7.86872
7606 1 34.3793 17.8961 4.09994
6812 1 32.4652 17.6859 5.57115
7610 1 34.5276 17.8597 7.30825
7689 1 34.2571 19.7649 5.68943
6891 1 32.177 19.6891 7.22061
567 1 3.33806 23.4716 3.81139
486 1 1.39628 21.5578 3.73917
569 1 1.85646 23.5939 5.43743
571 1 3.44206 23.4477 7.47878
7771 1 1.29844 21.4256 7.25897
7767 1 -0.448802 21.5271 5.52819
492 1 3.21734 21.7694 5.69891
7765 1 -0.411558 23.2533 3.85599
7772 1 36.711 23.3837 7.22738
1367 1 6.85162 23.1813 3.87684
1286 1 4.76497 21.5242 3.78577
1292 1 6.75636 21.5 5.8123
1369 1 5.19189 23.5263 5.64984
1371 1 6.64373 23.5078 7.50423
1290 1 5.25374 21.6741 7.66195
2167 1 10.454 23.1511 3.81395
2086 1 8.70796 21.3321 4.08429
2090 1 8.66597 21.4816 7.50579
2092 1 10.5162 21.16 5.70574
2171 1 10.2742 23.1549 7.32493
2169 1 8.58609 23.6969 5.8173
2887 1 14.0669 19.7367 3.78427
2967 1 14.3018 23.423 3.79965
2890 1 12.1866 21.439 7.58394
2886 1 12.2344 21.3859 3.74103
2969 1 12.2684 23.0831 5.6067
2892 1 14.1199 21.6844 5.61537
2971 1 13.8307 23.3962 7.52399
3769 1 16.1259 22.9975 5.69534
3686 1 16.7263 21.2208 4.17651
3690 1 15.7701 21.5704 7.51741
3692 1 17.8954 21.5664 6.24981
3767 1 17.7742 23.3279 4.03917
4486 1 19.5733 21.7707 4.01921
4569 1 19.4836 23.4092 5.73155
3771 1 17.8285 23.5529 7.74963
4490 1 19.8184 21.6686 7.57949
5286 1 23.2301 21.379 3.83883
4492 1 21.5845 21.7426 5.59192
4567 1 21.5949 23.1302 3.66499
4571 1 21.8255 23.6509 7.49982
5369 1 23.4898 23.431 5.69733
5290 1 23.913 21.5749 7.78752
6089 1 27.2475 19.7183 5.53144
5287 1 25.338 19.9658 3.87753
6086 1 27.0874 21.4409 3.63279
5367 1 25.4193 23.1971 3.86361
5292 1 25.2698 21.5864 5.88177
6090 1 27.0308 21.5174 7.82658
6169 1 26.8385 23.1557 6.00635
5371 1 25.015 23.6146 7.5258
6967 1 30.9071 21.7283 3.7001
6171 1 28.7235 23.2688 7.45312
6092 1 28.6639 21.5177 5.75352
6969 1 30.7472 23.4267 5.63595
6890 1 30.3524 21.5871 7.42192
6167 1 28.9626 22.8102 4.03184
6887 1 32.4403 19.3944 3.93787
7766 1 32.2679 23.813 3.97519
6971 1 32.4666 23.3127 7.17628
6892 1 32.7122 21.8106 5.24353
7686 1 34.4164 21.6558 3.81553
4961 1 34.5291 23.6909 5.48047
7769 1 34.3328 21.6278 7.40696
566 1 1.62413 25.2561 3.59239
647 1 3.22047 27.0201 3.86931
572 1 3.19947 25.4519 5.92045
649 1 1.36444 27.1144 5.76324
651 1 3.17457 27.2586 7.56971
570 1 1.39158 25.2848 7.6162
646 1 -0.199062 27.0665 3.62473
7847 1 -0.126117 25.3218 5.38819
7851 1 -0.207244 27.3521 7.56708
1447 1 6.72117 27.1683 3.72313
1366 1 5.26509 25.0951 3.75452
1449 1 4.93589 27.2678 5.84255
1372 1 6.87707 25.4864 5.78425
1451 1 6.69395 27.0952 7.59735
1370 1 5.27885 25.3395 7.32306
2166 1 8.8432 25.0745 3.72369
2249 1 9.00038 26.6914 5.65075
2172 1 10.7409 24.7863 5.89257
2247 1 10.5143 26.6558 3.98099
2251 1 10.5796 26.7548 7.59447
2170 1 8.45428 25.4733 7.63793
2966 1 12.3316 24.7734 3.87883
3047 1 13.9272 26.3039 3.67102
2970 1 12.2427 25.1761 7.67195
3049 1 12.0722 26.7671 5.78987
2972 1 13.735 25.0743 5.73378
3051 1 13.8528 26.7893 7.37648
3770 1 15.9528 25.277 7.31569
3849 1 15.8868 26.91 5.15055
3766 1 15.9978 24.9546 3.55496
3772 1 17.6013 25.1339 5.3649
3847 1 17.8551 26.4645 3.47849
4649 1 17.7919 27.0403 7.27144
4566 1 19.7002 24.9141 3.89182
4570 1 19.5275 25.3768 7.55918
4645 1 19.6831 26.8315 5.54277
5366 1 22.9885 24.6748 3.87997
4572 1 21.3637 25.0827 5.70638
4647 1 21.7547 26.733 3.56235
4651 1 21.3986 27.0048 7.46211
5449 1 22.7952 26.9348 5.70302
5370 1 23.3943 25.3498 7.21931
6166 1 27.3944 25.0164 3.92234
5372 1 25.4209 25.0643 5.52931
5447 1 24.6827 27.1101 4.08532
6249 1 26.7289 27.3401 5.71625
5451 1 25.2077 27.1259 7.74969
6170 1 26.8156 25.3943 7.46684
6247 1 28.8602 27.1272 4.15286
6251 1 28.8694 26.9485 7.18546
6172 1 28.6817 25.2123 5.78012
7049 1 31.107 26.9914 5.96819
6970 1 30.6925 25.2151 7.20894
7850 1 32.0209 26.8033 3.8748
7051 1 32.7178 27.0275 7.35384
6972 1 32.9512 25.3831 5.96023
6965 1 34.4232 25.3237 3.58158
7849 1 34.6877 26.95 5.32505
7770 1 34.9169 25.3727 7.59982
727 1 3.30207 30.6511 4.24151
652 1 3.26685 29.1709 5.90225
648 1 1.43117 28.8158 4.00906
729 1 1.37078 30.7542 5.88725
650 1 1.51209 28.9199 7.40755
731 1 3.77945 30.8557 7.60994
7852 1 -0.497137 28.7702 5.5129
7927 1 -0.426192 30.6664 4.04006
7931 1 -0.555931 30.7467 7.46582
1446 1 4.97219 28.7955 4.15413
1527 1 6.96873 30.6949 3.85803
1529 1 5.54254 30.4898 5.88843
1452 1 6.95508 28.6534 5.82126
1531 1 7.33186 30.4206 7.55342
1450 1 5.17342 28.9165 7.69073
2246 1 8.53905 28.8444 3.91502
2329 1 8.63763 30.853 5.50484
2252 1 10.5267 28.8202 5.40245
2327 1 10.5216 30.7006 4.17783
2331 1 10.559 30.646 7.03765
2250 1 9.08411 28.5653 7.55026
3046 1 12.4998 28.3662 3.70363
3050 1 12.4636 28.9176 7.24888
3127 1 14.4773 30.3531 3.7441
3129 1 12.7487 30.9502 5.26181
3052 1 14.0116 28.6446 5.39226
3131 1 14.5018 30.4323 7.0865
3132 1 14.6361 32.5593 4.96852
3846 1 16.0661 28.8422 3.41386
3850 1 16.1653 28.7533 6.83217
3929 1 16.4339 30.6845 5.33806
3852 1 17.7083 28.5608 5.06762
3927 1 17.8635 30.5248 3.37068
3931 1 17.9149 30.5996 7.02934
4650 1 19.6054 28.659 7.11233
4646 1 19.8302 28.402 3.57264
4729 1 19.8258 30.2306 5.14351
4727 1 21.5133 30.3977 3.30568
4652 1 21.6709 28.9533 5.56407
5446 1 23.3836 28.9747 3.81238
5529 1 23.1431 30.8771 5.36323
4731 1 21.2779 30.6292 7.1381
5450 1 23.3601 28.6133 7.44528
5527 1 25.1003 30.7867 3.52214
6246 1 26.7174 29.0865 3.75884
5452 1 24.8906 28.8005 5.5585
6329 1 27.0092 30.6866 5.83029
6250 1 26.8256 28.7864 7.33909
5531 1 24.6423 30.6426 7.27312
6327 1 28.5781 30.4673 3.79116
6252 1 29.1215 28.8455 5.73859
6331 1 28.8328 30.3704 7.45016
7046 1 30.712 28.9139 3.86859
7129 1 30.7104 30.8336 5.99364
7050 1 31.0511 28.7408 7.41998
7052 1 32.5351 28.8129 5.64096
7056 1 32.6864 30.5243 7.26396
7127 1 32.4849 30.5201 4.0791
7846 1 34.4205 28.75 3.70103
7131 1 34.402 30.5468 5.56738
7929 1 34.5393 28.7566 7.32241
6 1 1.23493 -0.301054 4.19234
730 1 1.13478 32.6595 7.62158
732 1 3.16837 32.2747 5.71458
10 1 1.42015 36.007 7.17974
726 1 1.34263 32.4845 4.00986
9 1 1.49328 34.1945 5.56509
11 1 3.22648 34.323 7.64745
7 1 3.37874 34.811 3.907
7211 1 -0.374794 34.2708 7.69857
1526 1 5.16167 32.3994 3.8968
810 1 5.30317 -0.517038 7.4922
1530 1 5.50525 32.2236 7.55602
1532 1 6.93205 32.7695 5.60755
809 1 5.21126 34.293 5.62725
805 1 7.11014 34.473 3.80662
811 1 7.01261 34.1232 7.56098
2330 1 8.70738 32.4059 7.36338
2332 1 10.8811 32.7137 5.26663
1606 1 8.92752 -0.661444 4.17355
1609 1 8.78896 32.5826 3.94659
1610 1 9.00844 34.3074 5.4999
1611 1 10.9295 34.0873 7.10155
1693 1 9.15429 -0.331419 7.34165
2412 1 14.4897 -0.416893 5.72217
2410 1 12.7382 -0.310631 7.06009
3210 1 16.2131 0.124635 7.28011
2407 1 14.3134 34.4357 3.5704
2409 1 12.7782 34.4322 5.70558
3126 1 12.6349 32.2758 3.41156
2411 1 14.8454 34.4921 6.8553
3130 1 12.8302 32.3232 7.19648
3212 1 17.6369 -0.375511 5.65449
3206 1 15.8347 36.2159 3.76679
3930 1 16.0917 32.6246 6.80847
3209 1 16.4126 34.2652 4.95749
3932 1 18.0088 32.5526 4.89636
3207 1 18.3154 34.3435 3.52663
4009 1 19.4918 34.4361 5.59235
3211 1 17.6171 34.5992 7.27484
4730 1 19.2813 32.4516 6.98967
4726 1 19.7742 32.5217 3.52063
5526 1 23.2901 32.4353 3.66063
4007 1 21.26 34.4042 3.75955
4732 1 21.1737 32.3507 5.28143
4812 1 22.8344 34.458 5.42416
4809 1 21.3755 34.3194 7.23838
5530 1 22.918 32.6719 7.14176
4806 1 23.712 -0.576832 3.99186
4807 1 25.2394 34.2909 3.81001
6326 1 26.9552 32.3337 3.66151
6330 1 27.0234 32.4567 7.14221
5532 1 25.1217 32.3814 5.58155
4811 1 24.8024 34.3543 7.05505
5609 1 26.7853 34.3013 5.47314
6406 1 30.2531 -0.489194 4.14966
6410 1 30.467 -0.557331 7.27018
6332 1 28.6616 32.4516 5.26185
5611 1 28.4821 34.3288 7.19738
7126 1 30.7902 32.2196 3.92666
5607 1 28.3599 34.1987 3.92538
6409 1 30.5183 34.2816 5.31229
7130 1 30.3622 32.9283 7.16088
6412 1 32.2984 -0.401844 5.93096
7210 1 34.2194 36.4449 7.54349
7206 1 34.4051 35.968 4.29942
7932 1 36.2271 32.4138 5.66476
7207 1 -0.828619 34.2755 3.89656
6407 1 32.5776 34.6464 4.21432
7132 1 32.6165 32.6209 5.37014
7926 1 34.4739 32.3723 3.8554
7930 1 34.3425 32.4334 7.30071
7209 1 34.531 34.2146 5.83538
6411 1 32.6696 34.3818 7.2385
93 1 1.20381 1.03822 9.02044
96 1 3.28334 3.35975 9.41912
7295 1 -0.727983 1.37772 10.3434
94 1 1.14349 2.93601 10.7811
14 1 1.15397 36.3163 10.9678
95 1 3.10685 1.24519 10.5883
16 1 3.34659 -0.497661 9.03925
893 1 4.95328 1.55128 8.88831
895 1 7.39848 1.09774 10.5625
816 1 7.11482 36.0381 9.05804
814 1 4.88625 36.0842 10.8543
894 1 4.97915 2.65822 10.8943
820 1 6.99195 36.5184 12.4429
1690 1 9.28624 1.40463 9.25081
1695 1 10.5216 1.19219 10.915
1696 1 10.8871 3.32104 9.08589
1694 1 8.64245 3.03113 11.0124
1614 1 9.24236 35.9982 10.6473
1616 1 10.6724 36.2041 8.92724
2493 1 12.1539 1.44467 9.22289
2494 1 12.4542 3.24161 11.0477
2495 1 14.0168 1.45057 11.1574
2496 1 14.126 3.15728 9.21784
2414 1 12.2621 36.1055 10.5587
3293 1 15.7686 1.11702 9.47443
3294 1 15.9883 3.14682 10.7378
3295 1 17.8306 1.51195 11.168
3296 1 18.1743 3.08837 9.27955
4093 1 19.8569 1.36591 9.54807
4014 1 19.7916 36.3257 10.9909
4094 1 19.7222 3.01416 11.1806
3214 1 15.5412 -0.599933 10.9354
3216 1 17.689 -0.248201 9.25163
4097 1 19.5844 1.06427 12.9391
4016 1 21.5511 0.91409 10.9064
4894 1 23.3575 3.22441 11.1178
4095 1 21.7298 3.02265 9.56079
4814 1 23.1648 35.8089 11.1136
4011 1 21.4623 -0.516363 9.28864
4893 1 23.6048 1.40252 9.37854
4020 1 21.4972 35.8631 12.8866
4895 1 25.4842 1.32051 11.1855
5693 1 27.1122 1.58395 9.21826
5694 1 27.4005 2.83963 11.1005
4896 1 25.5581 3.12955 9.3259
4816 1 25.2876 -0.786169 9.77935
5695 1 29.1494 1.37554 10.6983
5696 1 29.0144 2.99833 9.17099
6493 1 30.7924 1.42415 8.89766
6494 1 30.7632 3.24288 10.9429
5700 1 28.97 3.20941 12.8143
6418 1 30.4891 0.840114 12.9147
7296 1 35.9833 3.22746 8.80914
6495 1 32.3637 1.26786 10.9984
7293 1 34.1408 1.55278 9.12695
6496 1 32.1192 2.99225 9.04814
7294 1 34.0953 3.38404 11.0346
7216 1 -0.715818 36.0337 9.48788
7220 1 -0.658643 -0.419655 12.7425
6420 1 32.3291 -0.630087 12.5877
175 1 3.5838 4.97435 10.811
174 1 1.49703 6.73888 10.6562
173 1 1.35904 5.04055 9.07541
7376 1 -0.505086 6.55182 9.0054
7375 1 36.0049 4.86935 11.0454
177 1 1.32525 5.23244 12.4103
896 1 6.74817 3.02458 9.32673
176 1 3.44217 6.92672 9.06467
973 1 5.16525 4.92151 9.38344
974 1 5.23238 7.03621 10.7367
975 1 6.71293 5.04829 11.0082
976 1 6.862 7.03947 9.20403
1773 1 8.81155 4.91212 9.22404
1774 1 8.5198 6.9707 10.8971
1775 1 10.5022 4.37391 11.382
1776 1 10.7902 5.89956 9.83374
2574 1 12.5226 7.05035 11.016
2573 1 12.8216 5.1991 9.12194
2575 1 14.4045 5.35776 11.2315
2576 1 14.5412 6.79174 9.20049
2577 1 12.4615 5.02036 12.5356
3374 1 16.4388 6.86031 10.7953
3373 1 16.453 5.15984 9.4574
3375 1 18.2381 5.19835 11.3137
3376 1 18.1278 6.83898 9.09705
4173 1 19.991 5.06194 9.10588
4174 1 19.6538 6.92842 10.9074
4175 1 21.4004 5.17524 11.0708
4974 1 23.6553 6.66047 10.9242
4096 1 21.7465 6.94695 8.84455
4973 1 23.5136 4.8903 9.19478
4975 1 25.2919 4.94716 10.7628
4976 1 25.2446 6.68081 9.0409
5773 1 27.1729 5.08856 9.38758
5774 1 26.705 6.95577 10.8618
5777 1 27.1971 4.72144 12.6284
5775 1 28.6924 4.83606 11.0604
5776 1 28.7694 7.06598 9.28441
6573 1 30.7329 5.24783 8.97751
6574 1 30.3662 7.0573 10.9565
7297 1 32.2646 5.17891 10.7135
6576 1 32.8725 7.01116 9.25365
7373 1 34.4208 5.33603 9.21327
7374 1 34.7074 6.94728 10.9718
253 1 1.14022 8.22951 8.93554
256 1 2.8197 10.3792 9.26272
254 1 1.49536 10.2386 11.1001
7455 1 -0.254147 8.50456 10.9475
7456 1 -0.360241 10.2769 8.95171
257 1 1.35577 8.5189 12.8152
255 1 3.2512 8.48558 11.0122
1053 1 4.73334 8.88462 9.27088
1054 1 4.70577 10.7783 11.215
1055 1 6.68554 8.9163 10.7873
1056 1 7.03867 10.5102 9.11105
1135 1 8.64926 8.80851 8.98656
1854 1 8.98667 10.2384 11.1328
1855 1 10.4988 8.46162 10.5833
1856 1 10.7361 10.834 9.41224
2654 1 12.7827 10.2759 10.7921
2653 1 12.4748 8.47864 9.1638
2655 1 14.4238 8.64097 10.7139
2656 1 14.2383 10.3897 8.86095
3453 1 16.2051 8.57346 9.28726
3454 1 15.814 10.3773 11.1802
3455 1 17.928 8.61762 10.8762
3456 1 18.0775 10.4622 8.92045
4254 1 19.5424 10.8603 10.9814
4253 1 19.9034 8.93327 9.34979
4256 1 21.6589 10.9741 9.32057
4255 1 21.9013 8.93919 10.7445
5053 1 23.5941 8.627 9.01952
5054 1 23.2566 10.5026 11.1158
5056 1 24.9242 10.6804 9.1978
5055 1 25.2006 9.00636 10.824
5853 1 27.1721 9.04493 9.51866
5854 1 26.9586 10.9148 10.9005
5855 1 28.8772 9.01678 10.8318
5856 1 29.4358 10.5799 8.92193
6653 1 30.7993 8.76941 9.24401
6654 1 30.7661 10.5493 11.0146
5860 1 28.7259 10.5273 12.5226
6657 1 30.7533 8.67273 12.6397
6656 1 32.6501 10.5349 9.21407
6655 1 32.5737 8.36018 10.967
7453 1 34.5925 8.81437 9.19868
7454 1 34.6411 10.3821 10.9268
335 1 3.04255 12.1994 11.2406
333 1 1.25984 12.5414 9.37597
334 1 1.58114 14.1741 11.2992
7535 1 -0.524376 12.0536 10.8675
7536 1 -0.315977 14.0319 9.22118
336 1 3.35612 14.0891 9.23297
1133 1 5.34296 12.4134 8.86758
1140 1 7.15285 12.1365 11.3244
1134 1 5.01438 14.2519 11.1014
5604 1 6.86014 14.1019 9.47961
1215 1 6.76899 16.0717 10.962
1933 1 8.54053 12.4953 9.70573
1935 1 10.8932 12.236 11.2831
1934 1 8.78831 14.3694 11.2491
1936 1 10.8756 13.9821 9.42613
2733 1 12.8086 12.3891 9.25632
2734 1 12.5294 14.112 11.0689
2735 1 14.3834 12.2965 11.391
2736 1 14.3775 14.2676 9.35564
3533 1 16.0839 12.3359 9.30667
3534 1 16.0737 14.2874 10.7477
3535 1 17.936 12.7239 10.7334
3536 1 17.7755 14.1523 8.84621
4334 1 19.602 14.3594 10.8459
4333 1 19.7294 12.4842 9.07676
5133 1 23.1899 12.7908 9.14251
4335 1 21.7894 12.5993 11.2308
4336 1 21.2912 14.1847 9.4239
5134 1 23.4979 14.3285 11.0819
5933 1 27.2287 12.5198 9.25105
5135 1 25.2974 12.6428 10.8589
5136 1 25.3495 14.1668 9.13255
5934 1 27.2595 14.4731 11.1551
5936 1 29.1932 14.1366 9.13953
5935 1 29.0147 12.1602 10.7348
6734 1 31.1125 14.4104 10.9277
6733 1 31.0894 12.5068 9.4227
6735 1 32.8781 12.392 10.9667
6736 1 32.6268 14.3808 9.22647
7533 1 34.4896 12.551 9.20917
7534 1 34.6088 14.1474 10.8062
7537 1 34.8261 12.2498 12.571
6740 1 32.7542 14.212 12.9818
413 1 1.44876 15.9599 9.24528
416 1 3.23226 18.0887 8.87102
414 1 1.5201 17.8173 11.1609
493 1 3.2996 19.9346 10.7567
7691 1 1.07774 19.7542 9.43246
7616 1 -0.57403 18.1039 9.03317
415 1 3.08604 16.1232 10.9529
7695 1 35.8689 19.9579 11.1104
1136 1 5.23472 15.9055 9.12693
1214 1 4.77868 17.9503 10.5869
1216 1 6.77208 17.814 9.23785
2094 1 6.74916 19.8003 11.045
2013 1 8.81277 16.1745 9.67842
2015 1 10.6629 15.9171 11.3128
2014 1 8.58909 17.9404 11.0662
2016 1 10.2698 17.6627 9.21544
2095 1 10.4019 19.3305 11.1713
2093 1 8.85672 19.6066 9.22626
2815 1 13.8148 16.0585 11.0701
2813 1 12.0481 16.0509 9.35568
2814 1 12.2366 17.8773 10.9736
2816 1 14.0875 18.0721 9.1697
2895 1 14.304 19.6307 11.0509
3613 1 15.8907 16.1448 9.47923
3614 1 15.7882 17.9558 11.0123
3615 1 17.9218 15.7615 10.9122
3616 1 17.9222 17.7471 9.06743
3695 1 17.7165 19.6015 10.7558
4493 1 19.8989 19.8469 9.15208
4413 1 19.7933 15.9794 9.01335
4414 1 19.8161 17.8506 10.7157
4415 1 21.7087 16.0045 10.9215
5213 1 23.4565 15.9328 9.1703
4416 1 21.5354 18.1768 9.12298
5214 1 23.4661 17.5763 11.078
5293 1 23.4799 19.4357 9.47593
4495 1 21.7667 19.641 11.0358
5215 1 25.6824 16.0948 10.6581
6013 1 27.4868 16.108 9.374
5216 1 25.5709 17.7509 8.8957
6014 1 27.2872 17.9676 11.0064
6093 1 27.3259 19.6806 9.2326
5295 1 25.3888 19.4002 10.9839
6097 1 27.2123 19.638 12.7668
6813 1 30.8269 16.0255 9.17292
6015 1 28.9594 16.1111 11.2482
6016 1 29.2696 18.0061 9.18818
6814 1 30.8041 17.8414 10.8535
6095 1 29.1873 19.9946 11.4356
6893 1 30.8156 19.8453 9.51223
7615 1 -0.426659 16.2042 11.3883
6815 1 32.6122 15.98 10.8526
6816 1 32.7302 18.0434 9.41996
7613 1 34.6345 16.1765 9.32071
7614 1 34.2494 17.8446 11.0084
6895 1 32.6796 19.6851 10.9352
7693 1 34.3877 19.7423 8.99944
6820 1 32.4355 17.6856 12.6732
490 1 3.1134 21.7434 9.08603
494 1 1.16783 21.5399 10.9046
573 1 1.23477 23.6341 9.32533
575 1 3.1354 23.1674 11.1168
7773 1 35.9693 23.5218 11.2214
7696 1 -0.537953 21.8495 9.01887
500 1 3.4603 21.4959 12.8194
1291 1 5.09041 19.7926 9.24778
1294 1 5.05974 21.453 10.8395
1296 1 7.29389 21.2136 9.31686
1375 1 6.73803 23.19 11.3831
1373 1 5.58601 23.4281 9.32393
2177 1 8.58769 21.4036 11.5954
2096 1 10.2006 21.4712 9.25782
2175 1 10.3259 23.0475 11.0937
2173 1 8.45466 23.192 9.24806
2893 1 11.7222 19.4252 9.29925
2973 1 11.9534 23.2294 9.50489
2894 1 12.2016 21.1848 10.9431
2896 1 13.9636 21.4419 9.3387
2975 1 13.9455 23.5044 11.1323
3693 1 15.7769 19.7911 9.41754
3773 1 15.8112 23.5113 9.11273
3694 1 15.7747 21.7034 11.0678
3696 1 17.4752 21.7412 9.48064
3775 1 17.8668 23.5073 10.8502
4494 1 19.6531 21.2862 10.9071
4573 1 19.673 23.3181 9.22142
4577 1 19.6749 23.0072 12.6705
4496 1 21.5615 21.194 9.12746
5373 1 23.2315 23.3665 9.41554
4575 1 21.4425 23.0543 11.1319
5294 1 23.3304 21.4806 11.0052
4500 1 21.5152 21.4667 13.1466
5377 1 23.3646 23.4273 12.7312
5296 1 25.1677 21.2615 9.76027
5380 1 25.1336 23.2876 11.1703
6094 1 27.1693 21.4812 11.2339
6173 1 26.9813 23.173 9.49626
6096 1 29.2443 21.6218 9.47332
6175 1 28.693 23.8414 10.8478
6894 1 31.1791 21.8424 11.2511
6973 1 30.9537 23.3631 8.97322
6977 1 31.157 23.5756 13.2371
6100 1 29.2906 21.9206 12.8364
6975 1 32.8193 23.6606 10.9537
6896 1 32.5189 21.293 9.12763
7694 1 34.298 21.7405 11.1203
7690 1 34.2326 23.261 8.93697
6900 1 34.1196 23.5818 13.0992
6898 1 32.8675 21.6354 12.7034
576 1 3.37589 24.892 9.14511
574 1 1.46037 25.129 11.1552
653 1 1.25975 27.2859 9.44864
655 1 3.06448 27.0228 11.1345
7776 1 -0.492894 25.4558 9.40879
7855 1 -0.37337 26.9214 11.4696
580 1 3.2565 25.2942 13.2559
1374 1 5.11984 25.032 11.2474
1453 1 4.90973 27.1006 9.28476
1376 1 6.70622 25.3824 9.50729
1455 1 7.01965 27.2093 11.0541
2253 1 8.67385 26.9974 9.30156
2174 1 8.78808 25.1639 11.1496
2176 1 10.2518 25.0404 9.19733
2255 1 10.4231 27.2931 10.6427
2974 1 12.0252 25.3619 10.7475
3053 1 12.3362 27.3056 9.11356
2976 1 13.9328 24.9524 9.21321
3055 1 13.8782 26.8914 10.6764
3851 1 15.7747 27.0051 8.76642
3853 1 15.9931 25.417 10.7433
3776 1 17.5062 25.3797 8.95052
3855 1 17.7701 27.2162 10.6385
4653 1 19.7389 27.0813 9.08843
4574 1 19.6193 25.4061 10.9021
4655 1 21.6164 27.2452 11.1518
4576 1 21.5834 25.2329 9.21965
5374 1 23.4937 25.3209 11.0639
5453 1 23.3272 27.147 9.37631
5376 1 24.9915 25.5567 9.08245
5460 1 25.2205 27.1517 10.6567
5375 1 26.5791 25.311 10.7842
6174 1 27.1747 27.6396 9.1929
6176 1 28.4959 25.3222 9.07481
6255 1 28.8152 27.1707 11.1713
6974 1 30.439 25.3736 10.7972
7053 1 30.6348 26.7898 9.04027
6180 1 29.0257 25.2322 13.1255
6976 1 32.6514 24.9877 9.1542
6980 1 32.3472 26.648 10.6808
7774 1 34.4051 25.5771 11.3002
7853 1 34.4233 26.96 9.37726
7777 1 32.5752 25.3559 12.866
654 1 1.1416 28.9615 11.123
733 1 1.54763 30.8381 8.9257
735 1 3.02561 30.6348 10.8957
656 1 3.23086 29.0024 9.48874
7935 1 36.1852 30.9402 10.9836
7856 1 36.242 28.9078 9.38235
737 1 1.33879 30.5207 12.718
1454 1 5.29965 28.9535 11.0228
1533 1 5.44698 30.7357 9.31008
1456 1 6.99158 28.8998 9.36773
1535 1 7.06203 30.3971 11.3224
2333 1 8.93714 30.5527 9.22236
2254 1 9.00912 29.0159 10.8771
2256 1 10.6885 29.0625 9.01088
2335 1 10.777 30.5808 10.7818
2337 1 8.78219 30.2888 12.9114
3133 1 12.2793 30.5981 8.91493
3054 1 12.7994 29.1441 10.7371
3056 1 14.1413 28.7294 8.58638
3135 1 14.4995 31.1271 11.0416
3933 1 16.1392 30.9418 8.92122
3854 1 15.8179 28.9528 10.6598
3856 1 17.9626 28.9041 8.74482
3935 1 17.5134 30.947 10.9618
4733 1 19.3662 30.8298 9.3713
4654 1 19.638 29.0109 11.1054
4737 1 19.4733 30.819 12.6514
4735 1 21.5343 30.4247 11.2224
4656 1 21.4668 29.1991 9.08059
5533 1 23.1519 30.7984 9.10893
5454 1 23.298 29.1259 10.9117
4660 1 21.476 28.7208 13.1336
6253 1 25.0775 29.0498 9.35182
5535 1 24.9537 30.3976 11.0014
6254 1 26.8625 29.2928 11.1776
5456 1 26.5252 31.1091 9.10249
6256 1 29.0367 29.1644 9.41213
6335 1 29.2897 30.809 11.0116
7054 1 30.7659 28.6675 10.9748
7133 1 31.2793 30.4118 9.21635
7135 1 32.5798 30.4219 11.3174
7055 1 32.7827 28.5453 9.11524
7854 1 34.1944 28.675 10.9517
7933 1 34.1641 30.8363 9.2983
7860 1 -0.776666 28.8409 12.6308
7936 1 -0.816949 32.5305 9.0902
734 1 1.49008 32.2862 10.9199
15 1 3.26437 34.3605 10.9233
13 1 1.22269 34.3594 9.36904
736 1 3.45488 32.5998 9.51206
7215 1 36.2028 34.2542 11.269
17 1 1.44771 34.1135 12.8108
7940 1 -0.451917 32.5467 12.6707
1536 1 7.2714 32.3348 9.32802
1534 1 5.17546 32.1876 11.3045
813 1 5.37893 34.0382 9.28303
815 1 7.16583 34.4215 11.0554
817 1 4.93633 34.5639 12.7448
1540 1 6.65017 32.6513 12.8825
2336 1 10.5589 32.2929 9.28458
2334 1 8.91345 32.0867 11.3973
1613 1 9.12288 34.4199 8.91424
1615 1 10.6789 34.1422 10.8405
2340 1 11.0125 32.3659 12.5527
2416 1 13.9698 -0.753728 8.7812
3136 1 14.6008 32.9399 8.87426
3134 1 12.4273 32.5963 10.8524
2413 1 12.3988 33.7416 9.01956
2415 1 14.1318 34.4786 10.9567
2417 1 12.1776 34.5387 12.7233
3213 1 15.9007 34.5161 9.36053
3934 1 16.1153 32.7565 10.9532
3936 1 17.7345 32.6383 8.91292
3215 1 18.1495 34.318 10.785
4734 1 19.4393 32.3648 11.2268
4017 1 19.941 34.1846 12.8314
4013 1 19.5354 34.4447 9.04057
3220 1 17.835 36.2017 12.7287
3940 1 17.6137 32.4672 12.7536
5536 1 23.3035 32.4081 10.9848
4736 1 21.0445 32.448 9.00261
4015 1 21.1286 34.1934 10.6879
4813 1 22.7413 34.2064 9.23814
5534 1 23.7286 34.3937 13.0009
4740 1 21.5097 32.4091 12.6721
5614 1 27.3135 -0.531258 11.0307
6334 1 27.1375 32.5107 10.8041
6333 1 24.6742 32.5898 8.78941
4815 1 25.2271 33.8815 11.0754
5613 1 26.7456 34.1886 8.78909
6414 1 28.9691 36.2719 9.18538
4164 1 30.6635 -0.468959 10.9998
7134 1 30.9548 32.0883 10.9355
5615 1 29.0169 34.1196 10.696
6336 1 28.7486 32.4205 9.16489
6413 1 30.2935 34.1904 8.87177
6417 1 30.5972 34.1585 12.6753
5620 1 28.7633 -1.11811 12.7237
7214 1 33.9749 -0.353624 10.7062
6416 1 32.1622 36.173 9.00971
7136 1 32.5844 32.5032 9.09397
6415 1 32.2817 34.2313 10.8076
7213 1 34.0308 34.2832 9.28091
7934 1 34.3602 32.674 10.959
97 1 1.47406 1.31857 12.4216
20 1 3.14744 -0.548364 12.6657
100 1 2.97169 3.41633 12.4211
101 1 1.51765 1.35541 16.1249
98 1 1.65794 2.9529 14.4246
102 1 3.16371 2.93435 16.4812
18 1 1.55085 35.9453 14.8902
24 1 3.16919 36.075 16.4883
99 1 3.36655 1.27939 14.2261
7300 1 -0.0742028 3.28964 12.6812
7299 1 -0.158035 1.12201 14.2915
7302 1 -0.362973 2.93037 16.0748
7224 1 36.2471 -0.0204373 16.3479
900 1 6.49226 2.9914 12.7614
897 1 5.00494 1.22145 12.5552
901 1 5.15037 1.30372 16.0457
899 1 6.84091 1.08913 14.5706
898 1 5.10671 3.02961 14.6293
904 1 6.99827 3.39057 17.1466
818 1 4.92989 -0.469432 14.4172
1620 1 10.621 -0.367052 12.6352
1697 1 8.68678 1.22671 12.5271
1701 1 8.44154 1.41047 16.5402
1699 1 10.5636 1.14513 14.5798
1698 1 8.23709 3.15216 14.5883
1704 1 10.5487 2.99926 16.0489
1618 1 8.63287 -0.550777 14.5121
1624 1 10.3446 -0.131706 16.2924
2497 1 12.1216 1.24451 12.6932
2500 1 14.382 3.3219 12.7536
2501 1 12.3377 1.32605 16.367
2499 1 14.192 1.44441 14.6523
2498 1 12.3792 3.17167 14.0881
2504 1 13.9782 3.38164 16.1851
2420 1 13.7814 -0.461033 12.5239
2424 1 14.0912 -0.418079 16.2744
2418 1 12.2794 -0.515102 14.5756
3300 1 18.1371 3.2097 12.7212
3301 1 15.8149 1.36076 16.1354
3297 1 16.1912 1.58198 12.8809
3298 1 15.902 3.25694 14.576
3299 1 17.7327 1.07563 14.6058
4098 1 19.8774 3.09912 14.3804
3218 1 15.5704 -0.64415 14.359
4101 1 19.6464 1.20347 16.3608
3304 1 17.7441 3.14025 16.0471
4100 1 21.6378 3.00462 12.8622
4897 1 23.3162 0.974966 12.7995
4099 1 21.6397 1.22247 14.4827
4901 1 23.3749 1.27818 16.0024
4898 1 23.9281 2.69551 14.3329
4104 1 21.577 2.91101 16.2131
4818 1 23.9282 36.1731 14.6178
4900 1 25.4478 3.29363 12.118
5697 1 27.7731 1.23166 12.8824
4899 1 25.508 1.35297 14.0186
4904 1 25.146 2.69604 16.3347
5701 1 27.0313 1.16306 16.2627
5698 1 26.732 3.18147 14.4112
5618 1 27.3007 -0.801073 14.4512
5699 1 29.0785 1.0089 14.7892
6501 1 30.9124 1.00406 16.1722
6498 1 30.4395 3.05081 14.6548
5704 1 28.7768 3.00419 16.3951
6497 1 30.8992 35.8834 14.3899
7218 1 34.3898 -0.364065 14.1819
6500 1 34.1237 1.20733 12.4316
7298 1 32.3 2.91277 12.9317
7301 1 32.6752 1.20562 14.4092
6499 1 34.5147 1.44564 16.4036
6504 1 32.1887 3.13805 16.323
7379 1 34.3542 2.88425 14.3681
180 1 3.33019 6.90699 12.7744
7377 1 -0.371624 6.86245 12.5668
184 1 3.33171 7.08074 16.7018
179 1 3.31723 5.02477 14.4764
181 1 1.51577 4.77114 16.2115
178 1 1.45545 6.74745 14.5088
7384 1 36.3267 6.8242 15.9132
7381 1 -0.386226 4.94409 14.5993
977 1 5.06952 4.7736 12.7482
980 1 6.87538 7.04415 12.4984
979 1 6.53724 4.88819 14.7784
978 1 5.01889 6.65181 14.5003
981 1 4.94098 4.60789 16.5439
982 1 6.97705 6.40052 16.3701
1700 1 10.1666 2.84778 13.0792
1777 1 8.23069 4.73902 12.8077
1780 1 10.6573 6.9834 12.5633
984 1 8.85194 6.91395 14.6433
1781 1 8.82278 5.00068 16.1274
1779 1 10.3346 5.03072 14.3202
1784 1 10.7154 6.80497 16.1378
2580 1 14.1656 6.97554 12.8075
2578 1 12.3364 6.65713 14.4461
2581 1 12.2726 4.83846 15.764
2584 1 13.9892 6.88387 16.1757
2579 1 14.4189 5.19985 14.3914
3377 1 16.1225 4.83439 12.9336
3380 1 18.4404 6.98324 12.9241
3381 1 16.3066 4.83701 16.2805
3378 1 16.2843 6.83815 14.7858
3379 1 17.8609 4.94877 14.2705
3384 1 18.4307 6.75416 15.5828
4177 1 19.9011 4.84774 12.5696
4178 1 20.5601 6.79507 14.4819
4180 1 22.0609 6.83467 12.8221
4977 1 23.2533 4.70542 12.8289
4181 1 19.7429 4.64295 16.3264
4184 1 21.7801 6.2846 16.739
4179 1 21.4721 4.87023 14.591
4978 1 23.5878 6.3636 14.7022
4981 1 23.5528 4.43151 16.276
4980 1 25.1739 6.7113 12.6495
4979 1 25.4218 4.95768 14.4682
5778 1 27.3491 6.88731 14.5185
5781 1 26.8524 4.89037 16.5776
4984 1 25.1453 6.87883 16.1205
6577 1 30.6264 5.03445 12.8237
5780 1 28.7241 7.0141 12.6173
5784 1 28.8052 6.67242 16.3013
5779 1 28.9928 5.07598 14.3649
6578 1 30.7308 6.8165 14.4312
6581 1 30.2874 4.72186 16.1313
6580 1 32.4623 6.6485 12.6581
6575 1 33.7851 4.85639 12.714
6584 1 32.4263 6.99121 16.0876
6579 1 32.1295 4.758 14.6761
7378 1 33.966 6.79466 14.3699
7304 1 34.3915 4.69066 15.9804
260 1 3.3839 10.1175 12.8968
259 1 3.28245 8.46641 14.5226
258 1 1.29339 10.3106 14.6011
7459 1 1.13094 8.56903 16.5013
7460 1 36.3125 10.1685 12.6048
7464 1 -0.300068 10.4449 16.3528
264 1 3.23526 10.3466 15.9568
7380 1 -0.504673 8.87572 14.5774
1857 1 7.04274 10.3132 12.9795
1057 1 5.25618 8.74852 12.7183
1060 1 5.12962 10.3073 14.4575
1059 1 7.17825 8.44625 15.0794
1141 1 6.93065 10.6384 16.4469
1058 1 5.14819 8.4723 16.1004
1778 1 8.60357 8.67734 12.9797
1860 1 10.9857 10.3219 12.6061
1861 1 9.21984 8.71757 16.7325
1858 1 9.20465 10.6744 14.9304
1859 1 10.5116 8.52732 14.602
1864 1 10.7778 10.8877 16.6403
2657 1 12.6005 8.64363 12.6708
2660 1 14.4063 10.3877 12.8658
2658 1 12.3534 10.2557 14.4635
2659 1 14.2799 8.63107 14.5048
2661 1 12.264 8.67646 16.4837
2664 1 14.1871 10.2515 16.4602
3457 1 16.2609 8.46368 12.6682
4257 1 20.0792 8.81968 12.2523
3458 1 16.2752 10.3952 14.3204
3461 1 16.082 8.62838 16.3918
3460 1 18.2528 10.4109 12.7962
3459 1 18.1563 8.8341 14.4846
4258 1 19.8221 10.7243 14.6327
3464 1 18.0059 10.7373 16.5048
5057 1 23.7011 8.67044 12.7057
4261 1 19.8903 8.63313 15.9605
4260 1 21.3314 10.5687 12.9257
4259 1 22.254 8.76094 14.8279
5058 1 23.5634 10.8092 14.487
5061 1 23.7035 8.81821 16.658
4264 1 21.5565 10.3086 16.295
5060 1 25.1433 10.7117 12.6228
5857 1 26.7685 8.54414 12.8068
5059 1 25.232 8.79542 14.5517
5858 1 27.0531 10.4366 14.4219
5064 1 25.3923 10.713 16.3186
5861 1 27.1346 8.71563 16.2723
5859 1 28.7792 8.54188 14.5434
5864 1 28.6679 10.4877 16.3778
6658 1 30.3606 10.4586 14.2727
6661 1 30.5284 8.48765 16.228
7457 1 34.5206 8.69947 12.7618
6660 1 32.8075 10.3675 12.5736
6659 1 32.4295 8.65641 14.512
6664 1 32.5014 10.7052 16.2324
7458 1 34.5036 10.705 14.4466
7461 1 34.352 8.73025 16.2895
7540 1 -0.404331 14.415 12.7151
337 1 1.23364 12.001 12.7093
341 1 1.2524 12.1918 16.2176
417 1 0.968668 13.7254 14.421
338 1 3.58415 14.2608 15.6668
340 1 3.33466 14.4689 13.0255
339 1 3.12982 11.9633 14.0149
7539 1 -0.199788 11.8797 14.4565
7621 1 -0.488588 14.0217 16.28
420 1 1.57601 15.9537 12.703
1219 1 7.01322 14.0462 12.776
1137 1 5.17316 12.5164 12.8989
1144 1 6.87167 13.9471 16.3717
1138 1 5.55636 14.3714 14.369
1139 1 7.21794 11.9125 14.5032
1142 1 5.10397 12.4829 15.9964
1224 1 7.00996 16.1319 14.7684
1937 1 8.77486 12.0522 12.8564
1940 1 10.3486 14.4083 13.0197
1938 1 8.45682 13.9577 14.5558
1939 1 10.8334 12.3151 14.3849
1944 1 10.5628 13.6156 16.2254
1941 1 8.5994 12.3601 16.7273
2737 1 12.544 12.1414 12.9015
2740 1 14.3598 14.1093 12.5725
2741 1 12.7257 12.4051 16.2686
2738 1 12.2955 14.1392 14.5046
2739 1 14.6681 12.2647 14.3215
2744 1 14.4973 14.1843 16.3827
3540 1 17.6362 14.128 12.8455
3541 1 16.2253 12.0709 16.4942
3537 1 16.5007 12.315 12.4005
3544 1 17.5936 14.1155 16.3851
3538 1 16.1744 14.0296 14.7782
4337 1 19.5552 12.6419 12.4995
3539 1 18.0657 12.2643 14.8033
4262 1 19.5569 12.5091 16.2799
4338 1 19.6418 14.2868 14.5482
3621 1 15.9528 15.8564 16.6225
4340 1 21.6634 14.4339 12.7786
5137 1 23.6539 12.786 12.8513
4339 1 21.5533 12.6 14.3946
5138 1 23.4412 14.2171 14.5912
4344 1 21.6484 14.5733 16.4617
5141 1 23.3652 12.741 16.4623
5140 1 25.2386 14.5485 12.8792
5937 1 26.9983 12.4094 12.856
5139 1 25.1315 12.4718 14.7275
5941 1 27.239 12.5448 16.3003
5938 1 27.1737 14.4019 14.6861
5144 1 25.3136 14.1916 16.3228
5940 1 28.8956 14.0009 12.7238
6737 1 30.7415 12.4955 12.7285
5939 1 28.8458 12.2864 14.3907
6738 1 30.8621 13.8087 14.6235
5944 1 29.0824 14.3511 16.3808
6741 1 30.5893 12.3976 16.4773
6739 1 32.6662 12.2875 14.3092
6744 1 32.4986 13.9371 16.3166
7541 1 34.5056 12.1398 16.1011
7538 1 34.7983 13.599 14.3214
1293 1 1.47047 19.9957 12.9271
419 1 2.88449 16.5341 14.4021
7623 1 1.4839 16.0333 16.3898
1213 1 3.24292 17.9489 12.7913
497 1 1.23963 17.8755 14.7411
424 1 3.41001 17.7092 16.5573
7619 1 -0.156118 15.9056 14.4851
418 1 36.1971 17.6123 16.1499
1221 1 5.06941 15.9919 16.3241
495 1 4.89431 19.8516 12.9625
1295 1 6.77341 17.9078 12.6158
1217 1 4.95293 16.1488 12.8012
1218 1 5.00051 17.6835 14.4537
1303 1 7.07892 17.8173 16.6936
1302 1 5.25286 19.2952 16.3872
1297 1 6.98152 19.3795 14.6743
2017 1 8.45661 16.0769 12.8269
2019 1 10.4537 15.8607 14.8688
2020 1 10.308 17.8141 12.7884
2021 1 8.57849 15.7653 16.4715
1220 1 8.64131 17.7097 14.7573
2024 1 10.7844 17.7522 16.3983
2099 1 10.4172 19.1073 14.7574
2097 1 8.71433 19.7544 13.0741
2018 1 8.58797 19.5096 16.3537
2817 1 12.1697 16.2698 12.9594
2897 1 12.3518 19.3056 12.8153
2820 1 14.049 17.8742 12.9731
2821 1 12.8056 15.9139 16.6375
2818 1 12.6142 17.4136 14.727
2819 1 13.987 15.6547 14.402
2824 1 14.2008 17.7145 16.4294
2901 1 12.3517 19.4056 16.4808
2899 1 14.289 19.4775 14.7324
3617 1 16.2825 16.1531 12.873
3697 1 16.2935 19.4146 12.8848
3619 1 17.5413 15.8982 14.8943
3618 1 16.3993 17.906 14.8104
3620 1 17.8372 17.8519 12.7625
3699 1 18.0583 19.8176 14.5144
3624 1 17.5762 18.1441 16.7477
4421 1 19.52 16.0457 16.5532
3701 1 15.9775 19.6286 16.2941
4417 1 19.4699 16.0575 12.5076
4497 1 19.6804 19.5675 12.7791
4420 1 21.6438 17.5905 13.0761
5217 1 23.3923 16.0001 12.8901
4501 1 19.665 19.3005 16.7303
4418 1 19.2568 17.7302 14.487
4419 1 21.2374 16.1206 14.773
4341 1 23.3764 16.1699 16.4697
4424 1 21.6622 18.0522 16.6104
5218 1 23.2744 17.7335 14.6135
4499 1 21.386 19.3477 14.6499
5301 1 23.4373 19.4581 16.509
6017 1 27.2055 16.0391 12.8629
5220 1 25.399 17.5694 12.5765
5219 1 25.1539 16.0881 14.5228
6021 1 27.5757 16.0428 16.4252
6018 1 27.4015 17.7891 14.2305
5224 1 25.6113 17.7013 16.3512
5299 1 25.1911 19.4519 14.4471
6020 1 29.6291 17.9165 12.8905
6019 1 29.2497 15.7873 14.7689
6817 1 30.8381 15.8812 12.9208
6821 1 31.0828 16.227 16.4452
6024 1 29.3736 17.9089 16.3754
6818 1 31.1762 17.9678 14.7369
6099 1 29.1506 20.0365 14.2967
6897 1 31.2885 19.6965 12.5281
7620 1 -0.204014 18.1808 12.8263
6819 1 32.4938 16.0913 14.5545
7697 1 34.597 19.3449 12.8537
7617 1 34.4408 15.9064 12.8753
6824 1 32.9644 18.0509 16.1338
7618 1 34.721 17.673 14.5754
7624 1 34.1743 15.8166 16.0832
7699 1 1.20079 19.9879 16.2792
1301 1 2.98089 19.3361 14.9794
7704 1 36.0559 21.9744 16.5778
7700 1 -0.395982 19.6917 14.4511
577 1 1.30416 23.4595 13.0648
501 1 3.42935 21.3006 16.4192
498 1 0.966469 21.6459 14.8585
581 1 1.59769 23.4326 16.8022
7779 1 35.9707 23.6092 14.6456
579 1 3.52243 23.2315 14.8589
1299 1 6.6516 21.3167 12.9672
496 1 5.04057 23.1236 13.1213
1381 1 5.34363 23.3401 16.5782
642 1 5.13946 21.4673 14.9501
1377 1 7.02504 23.4741 14.8481
1298 1 7.00802 21.3493 16.3588
1300 1 8.6595 23.2422 12.8657
2100 1 10.7189 21.1546 12.5959
1304 1 9.02751 23.1178 16.7635
2179 1 8.56964 21.4919 14.6086
2101 1 10.3181 21.1085 16.2912
2978 1 10.8122 22.9752 14.3009
2900 1 14.1431 21.1274 12.931
2977 1 12.2694 23.1441 12.5557
2898 1 12.1959 21.0671 14.4742
2904 1 13.9218 21.4242 15.9998
2979 1 14.095 23.199 14.1246
2981 1 12.3693 23.367 16.3933
3700 1 17.6976 21.508 12.8892
3777 1 16.2193 23.52 12.7599
3781 1 15.538 23.3399 16.1566
3698 1 15.9047 21.5955 14.7526
3779 1 17.9996 23.3172 14.5977
3704 1 17.7847 21.4455 16.269
4581 1 19.6129 23.2132 16.4228
4498 1 19.8276 21.2949 15.0668
5297 1 23.3667 19.3322 12.9616
4504 1 21.9031 21.4136 16.4726
5298 1 23.3005 21.3571 14.6
5381 1 23.5819 23.2635 16.3532
4579 1 21.5184 23.2892 14.994
6101 1 27.1605 19.5099 16.2392
6177 1 27.3081 23.4021 13.1696
5300 1 25.1508 21.5798 12.6983
5304 1 25.0894 21.1525 16.2974
6181 1 26.7222 23.6461 16.1313
6098 1 27.0747 21.4408 14.701
5379 1 25.296 23.0953 14.4858
6901 1 31.0523 19.7164 16.5076
6179 1 28.9806 23.3354 14.7236
6104 1 31.0365 21.3885 14.8322
6103 1 28.965 21.3217 16.3794
6981 1 30.8545 22.9911 16.945
7701 1 34.7168 19.7945 16.1042
6899 1 32.905 19.8766 14.3232
7775 1 -0.62074 21.5209 12.8399
6904 1 32.6218 21.5328 16.567
6979 1 32.3217 23.48 15.0738
7698 1 34.3352 21.8178 14.808
7781 1 34.3555 23.6095 16.7927
657 1 1.28474 27.0647 13.0426
578 1 1.52413 25.2189 14.6388
659 1 3.35273 27.4855 14.8262
661 1 1.54916 27.2433 16.3501
584 1 3.4212 25.2357 16.194
1457 1 5.35492 27.0526 12.7891
1380 1 7.13968 25.2875 13.0171
1378 1 5.13161 25.262 14.569
1384 1 7.33486 25.0895 16.5356
1459 1 7.13508 27.0399 14.3866
1461 1 5.46407 27.1658 16.1418
2257 1 9.10004 27.123 12.8688
2180 1 10.4479 24.913 12.7066
2178 1 8.95211 25.3018 14.7832
2261 1 8.91416 26.8252 16.6342
2259 1 10.5165 27.1566 14.3551
2184 1 10.5425 25.0036 16.5486
3774 1 14.315 25.5408 12.722
3057 1 12.3195 27.2029 12.5241
2980 1 12.0259 25.4652 14.3822
3061 1 12.1686 26.854 16.3469
2984 1 13.8799 25.2791 15.9723
3059 1 14.3662 27.425 14.5245
4657 1 19.6726 26.8473 12.7246
3780 1 17.835 25.3387 12.6594
3778 1 15.8781 25.194 14.6289
3857 1 15.8841 27.1508 12.4715
3861 1 16.1507 27.2094 16.7523
3784 1 17.6764 24.9455 15.9735
3859 1 17.3396 27.2029 14.7358
4661 1 19.2313 27.0212 15.9279
4578 1 19.5854 25.0067 14.4455
5457 1 23.2441 26.9152 13.1126
4580 1 21.516 25.1368 12.8782
4584 1 21.1343 25.3035 16.3159
5378 1 23.4582 25.0975 14.8539
4659 1 21.2153 26.7603 14.6427
5461 1 23.2055 27.0577 16.4149
5455 1 25.2085 25.6736 12.891
6257 1 26.8966 27.1232 12.4629
6261 1 26.9016 27.2133 16.7514
5384 1 25.358 25.5407 16.4293
6178 1 27.246 25.3941 14.798
5459 1 24.9963 27.1198 14.7534
7057 1 31.1066 27.072 13.0739
6184 1 28.9357 25.4502 16.6081
6259 1 29.1995 27.21 14.6137
6978 1 30.604 25.1139 15.0575
7061 1 30.9007 27.2224 16.6983
7859 1 -0.31338 27.0712 14.5927
7784 1 -0.27199 25.186 16.1821
7780 1 -0.368475 25.2197 12.9943
7857 1 34.4237 27.2502 13.0197
7059 1 32.5716 27.1921 14.8236
6984 1 32.6106 25.134 16.4662
7778 1 34.3775 25.4725 14.5955
7861 1 34.6316 27.0955 16.235
660 1 3.29328 28.8255 12.7794
741 1 1.02345 30.8734 16.4563
658 1 1.1719 29.0854 14.5764
739 1 3.05096 30.6706 14.4159
664 1 3.19413 29.3225 16.4589
7939 1 -0.446994 30.978 14.4737
7864 1 35.8027 29.3692 16.407
1537 1 4.80763 30.5257 12.9084
1460 1 7.28316 28.7236 13.0827
1464 1 6.94482 28.7456 16.2546
1541 1 4.86507 31.1806 16.4616
1458 1 5.16426 29.1464 14.4905
1539 1 6.7529 30.7462 14.6142
2260 1 11.0347 29.091 12.9957
2258 1 8.78514 28.8855 14.8206
2341 1 8.7118 30.5891 16.4628
2264 1 10.2573 28.668 16.5544
2339 1 10.7536 30.8616 14.6399
3137 1 12.5377 30.8815 12.8468
3060 1 14.3008 28.8854 12.4237
3058 1 12.6845 29.1809 14.4388
3141 1 12.3792 30.337 16.236
3139 1 14.4068 30.8146 15.1101
3064 1 14.0954 28.8727 16.5491
3937 1 15.9249 31.0073 12.91
3941 1 16.3608 31.021 16.6461
3860 1 17.7387 28.9333 12.5142
3858 1 16.079 29.267 14.473
3864 1 17.858 28.9916 16.4057
3939 1 17.8567 30.6806 14.5032
4741 1 19.299 30.8441 16.4465
4658 1 19.4526 28.8768 14.2647
5537 1 23.3098 30.3618 12.7847
5541 1 22.9476 30.4455 16.4592
4664 1 20.8372 28.7261 15.9862
4739 1 21.2158 30.5397 14.7646
5458 1 23.145 28.6614 14.685
6337 1 27.2192 30.5358 13.0054
5539 1 25.1878 28.6806 12.9326
5464 1 25.0652 28.9863 16.5765
6341 1 27.1463 30.7461 16.2438
5540 1 25.0322 30.4208 14.7606
6258 1 27.0372 28.5079 14.5359
7137 1 30.6446 30.4272 12.9035
6260 1 29.1513 29.0567 12.9285
6339 1 28.9788 30.9382 14.6748
7058 1 30.7818 28.9138 14.8117
7141 1 31.3041 30.9464 16.4763
6264 1 29.1486 29.2366 16.5629
7060 1 32.5666 28.9303 12.948
7064 1 32.8972 28.8647 16.3055
7937 1 34.5395 30.7552 12.659
7139 1 32.6285 30.9328 14.4889
7858 1 34.3975 28.9645 14.4146
7941 1 34.2292 30.9802 16.0724
7140 1 32.8152 32.9014 12.9205
740 1 2.95443 32.3862 12.61
738 1 1.16906 32.615 14.6492
21 1 1.25802 34.346 16.5213
19 1 3.11871 34.5019 14.4009
744 1 2.90225 32.514 16.4247
7944 1 36.2692 32.6425 16.3529
7219 1 -0.677216 34.2598 14.2751
824 1 6.57115 36.3214 16.7375
1538 1 4.77177 32.4399 14.3753
1544 1 7.03282 32.7039 16.2961
819 1 6.939 34.6987 14.4883
821 1 5.03074 34.5299 16.0762
2344 1 10.4847 32.4388 16.6642
1617 1 8.82908 34.3695 12.5183
1621 1 8.53907 34.4387 16.2381
2338 1 8.40805 32.5873 14.4788
1619 1 10.4102 34.3393 14.5274
3140 1 13.9784 32.3091 12.9345
3138 1 12.2851 32.654 14.6786
2421 1 12.1227 34.5296 16.1021
3144 1 14.2071 32.5908 16.6918
2419 1 14.1175 34.2263 14.6533
3217 1 15.6964 34.4003 12.8613
4018 1 19.6534 36.1759 14.5426
3224 1 17.6277 -0.390238 16.1612
3944 1 17.9307 32.7721 16.393
4738 1 19.5518 32.4133 14.614
3938 1 16.0278 32.7298 14.5521
3221 1 16.1265 34.274 16.4789
3219 1 17.9787 34.5935 14.5387
4021 1 19.778 34.4598 16.3612
4822 1 21.6365 36.2141 16.0313
5538 1 23.2961 32.3106 14.4544
4821 1 23.0574 34.1451 16.089
4019 1 21.2216 32.5727 16.2941
4024 1 21.3672 33.7821 14.4972
4824 1 25.2152 -0.209675 16.3606
4820 1 25.3549 36.0905 12.8521
6338 1 27.2207 32.5735 14.8749
5617 1 26.9269 34.1829 12.5347
4817 1 25.1982 32.2199 12.7227
5361 1 25.155 34.1576 14.7027
5544 1 25.0846 32.4326 16.1896
4819 1 26.9243 34.3038 16.4178
5624 1 29.0441 35.9799 16.4012
2158 1 4.74248 27.2235 -1.37912
6564 1 32.7246 6.5957 -1.52952
6721 1 30.7829 12.1743 -1.7122
2564 1 14.551 7.1374 -1.37455
6559 1 30.7904 4.90831 -1.41865
241 1 1.59127 8.60051 -1.34339
28 1 1.45515 1.45337 19.8606
185 1 1.50794 3.2906 18.2074
105 1 36.0576 3.49998 19.7674
108 1 3.23233 3.32464 19.9626
7305 1 35.863 1.43299 18.642
22 1 1.08582 -0.495416 18.0269
189 1 35.9963 1.31193 21.8584
110 1 1.27561 3.31168 21.8139
103 1 3.0832 1.26323 18.2255
905 1 4.95251 1.41988 20.2208
903 1 6.7944 1.25502 18.4811
908 1 7.15347 3.18724 19.6923
104 1 4.83373 2.94564 18.2317
107 1 2.96874 1.63162 21.5332
1705 1 8.74835 1.19194 19.7574
1703 1 10.3566 1.4801 18.0764
1702 1 9.11514 3.37356 18.1504
1706 1 10.7407 1.22919 21.5967
1708 1 10.8261 3.21843 20.1305
1628 1 10.5542 -0.637414 20.0879
2507 1 12.5852 1.22565 19.8538
2503 1 13.9245 1.34022 17.9863
2509 1 14.2324 0.951887 21.6724
2508 1 14.0566 3.13572 20.162
2505 1 12.1193 3.24172 18.109
3305 1 15.669 0.920699 19.9179
3303 1 17.7325 1.33337 18.0035
4105 1 19.5124 1.15286 19.9834
3230 1 15.8686 2.78211 21.8375
3222 1 15.7532 36.0707 17.9762
3226 1 16.1479 36.052 21.6813
3306 1 17.8931 1.45871 22.1275
3302 1 15.6712 2.99675 17.7231
3308 1 17.3666 2.57013 19.9962
4102 1 19.9289 2.62666 18.1373
4103 1 21.5023 1.02975 17.8333
4905 1 23.2511 0.963544 20.0203
4108 1 21.538 3.16049 20.0551
4902 1 23.2888 2.56671 18.2246
4028 1 21.4475 35.9268 19.7353
3392 1 19.7567 3.17012 21.7459
4903 1 25.4152 1.39876 18.3206
5622 1 26.7039 1.11107 20.3888
4908 1 25.089 3.08244 20.0958
5702 1 26.8646 3.13518 18.1086
4907 1 25.1024 1.56847 22.215
5706 1 26.8977 3.27204 21.8676
5703 1 28.833 1.16537 18.3188
5708 1 28.7935 2.97867 20.079
6505 1 30.6877 1.40646 19.9838
6502 1 30.703 3.19317 18.1143
5628 1 28.6244 36.3624 19.8556
6503 1 32.5479 1.44043 18.1953
6508 1 32.3698 3.44992 19.9657
7226 1 34.0341 1.3895 20.0427
7303 1 34.2831 3.22644 18.0554
7306 1 34.1469 3.17083 21.5885
183 1 3.05654 5.0834 18.264
186 1 1.37369 5.02756 20.0285
182 1 3.04049 6.94109 19.7664
7463 1 1.05954 6.61019 17.9267
7388 1 -0.797391 6.55538 19.8437
106 1 3.54109 5.3183 21.6662
7383 1 -0.475921 4.90456 17.619
188 1 1.70813 7.01757 21.7191
7392 1 36.2408 5.05437 21.8526
902 1 5.05277 5.07037 19.8977
983 1 6.92105 5.08979 18.3678
986 1 7.05357 7.05041 19.8652
1067 1 5.36823 6.71481 18.0262
192 1 5.35504 7.16067 21.7401
1788 1 9.08724 4.92025 20.2342
1785 1 8.64727 6.47234 17.9662
1783 1 10.7812 5.2339 18.1772
1782 1 10.6848 6.72946 20.5402
988 1 9.05334 7.10436 21.8281
2585 1 12.6714 5.29609 20.2939
2582 1 12.1742 7.08308 18.2054
2502 1 13.5838 5.00298 17.8663
2588 1 14.0771 6.96521 19.878
2583 1 15.9507 6.60632 17.9265
3385 1 16.0173 5.10433 19.4317
3383 1 17.8132 4.66033 18.1768
3388 1 17.7201 6.6243 20.0107
2668 1 15.8781 6.57673 21.645
3387 1 17.5355 4.42601 21.3731
4182 1 19.3793 6.81743 17.706
4185 1 19.5386 4.87938 19.6598
4183 1 21.5859 4.54393 18.1982
4985 1 23.4248 4.71405 19.957
4982 1 23.4449 6.62771 18.1698
4188 1 21.1266 6.4717 19.7506
4986 1 23.2049 6.90847 21.8855
4988 1 25.0046 6.55747 20.3182
4983 1 25.1929 4.84948 18.3641
5785 1 26.7422 4.77459 20.0883
5782 1 26.7946 6.38525 18.177
5067 1 27.0671 6.87666 21.8424
5788 1 28.9076 6.72841 20.2483
5783 1 28.8861 5.19285 18.256
6585 1 30.5306 4.98942 20.2229
6582 1 30.7142 6.46535 17.6136
6586 1 30.673 6.74684 21.9227
6588 1 32.3594 7.10654 19.4962
6583 1 32.5207 4.88286 17.7963
7385 1 33.7633 5.25431 19.8978
7382 1 34.2441 6.584 17.8577
6587 1 32.5534 5.12262 21.6668
6674 1 34.3281 6.74158 21.5645
265 1 1.55709 8.74057 20.1879
262 1 1.28571 10.3487 18.1189
263 1 3.27508 9.01291 17.9315
7468 1 -0.0613304 10.4864 19.8993
268 1 3.25681 10.707 20.002
267 1 3.38462 8.66568 21.9181
2320 1 1.42881 10.4088 22.0854
7467 1 -0.514011 8.54353 21.3916
985 1 4.93141 8.90338 19.5924
1061 1 5.17282 10.6009 18.0213
1063 1 7.15573 8.65149 17.9332
1862 1 6.74219 10.4702 20.2239
1947 1 8.97082 8.65749 19.8864
1064 1 8.78473 10.3996 18.4129
1863 1 10.9056 8.9516 18.3313
1945 1 11.1342 10.7655 20.2804
990 1 9.20104 10.3108 21.9048
2665 1 12.8332 8.84092 19.9819
2662 1 12.4451 10.8015 18.3957
2663 1 14.5614 8.44838 18.1584
2667 1 14.3052 10.5685 19.8906
3546 1 12.5831 10.6146 22.2407
2746 1 14.5691 8.74262 21.8879
3462 1 15.9179 10.4115 18.3404
3465 1 16.177 8.4099 19.9169
3382 1 18.1213 8.82309 17.6564
3468 1 17.8871 10.0165 19.8635
3386 1 16.4578 10.29 21.8128
3463 1 20.0612 10.4115 18.0755
4265 1 19.6802 8.41778 19.5548
4263 1 21.3415 8.21865 17.7804
4268 1 21.6238 10.348 19.7902
5065 1 23.0967 8.71429 19.417
5062 1 23.0162 10.8576 18.036
5066 1 23.3738 10.2003 21.5067
5068 1 25.0283 10.2377 20.0207
5063 1 25.572 8.80403 18.05
5865 1 26.959 8.34649 20.0528
5862 1 27.0443 10.6165 17.9892
5070 1 25.0752 8.48909 21.7626
5868 1 28.4443 10.0587 19.6497
5863 1 29.1755 8.20244 18.1832
6665 1 30.4854 8.32273 19.9384
6662 1 30.6225 10.4765 18.4678
261 1 -0.291369 8.50494 18.4091
6663 1 32.4037 8.70484 17.8389
6668 1 32.6965 10.1182 19.7635
7465 1 34.4176 8.4144 19.4865
7462 1 34.397 10.5166 18.1513
7466 1 34.4811 10.2736 21.4838
6667 1 32.5465 8.52934 21.677
1066 1 3.11079 14.1263 20.1658
7544 1 1.60592 14.1467 17.7886
345 1 1.4183 12.4597 19.7907
7630 1 0.838134 14.2437 21.8705
344 1 3.38568 12.5167 17.8495
1223 1 7.20153 12.6017 18.3013
1069 1 5.10136 14.2812 18.0923
272 1 4.9355 12.5152 19.6069
1148 1 7.21242 14.0326 20.2164
1942 1 9.03225 14.5799 18.1729
1950 1 8.87332 12.239 20.4298
1943 1 10.2588 12.5407 18.3478
1948 1 10.8571 14.0432 20.1951
2745 1 12.8746 12.3127 20.4422
2742 1 12.3736 13.8839 18.4702
2743 1 14.0368 12.4826 18.0808
3545 1 14.2378 14.1716 20.3242
3553 1 12.6879 14.5979 21.8757
3551 1 16.1283 14.1446 18.1938
3470 1 16.1943 12.5286 19.9991
3542 1 18.0177 14.2089 19.8684
3543 1 17.7821 12.292 18.1786
3466 1 17.9559 12.1277 21.3791
3548 1 19.7518 12.0825 20.0341
4342 1 19.5105 14.0559 18.3446
5145 1 23.6323 12.1619 20.4695
4348 1 21.4125 14.0263 19.9716
4343 1 21.4372 12.2408 17.9859
5142 1 23.4102 13.9104 18.3134
5225 1 23.3028 15.5492 19.8356
5148 1 25.344 14.0906 20.0672
5143 1 25.1018 12.1075 18.6039
5945 1 27.1754 12.0449 19.9109
5942 1 27.097 14.1321 18.2405
5147 1 25.0266 11.9627 21.9853
5943 1 28.9987 12.4276 18.293
5948 1 29.1082 14.5291 19.7765
6745 1 30.7608 12.1482 19.9275
6742 1 31.036 14.2832 18.3938
6827 1 29.1523 12.0811 21.6399
7543 1 -0.702425 12.2786 17.826
7627 1 36.1648 13.9453 19.6563
6748 1 32.9596 14.1972 19.8357
6743 1 32.841 12.1421 18.1233
7545 1 34.7145 11.9605 19.9926
7542 1 34.6034 14.4399 17.9392
425 1 1.42653 15.8606 19.8616
7548 1 -0.262027 15.8382 18.1932
421 1 3.25364 15.7998 18.1794
422 1 1.63652 17.5595 18.3183
505 1 1.40783 19.7293 19.9504
352 1 1.58145 17.7818 21.6603
1222 1 2.99683 19.5136 18.0757
507 1 3.47798 17.8165 20.056
503 1 6.97709 15.7909 18.3812
423 1 5.11474 15.9752 20.1478
504 1 5.21442 17.5987 18.5
1305 1 7.33321 17.8942 19.8188
2025 1 8.88299 15.9585 20.0644
2023 1 10.9134 15.7836 18.4895
2022 1 9.1519 17.5016 18.2125
2112 1 10.6624 17.7103 20.0336
1228 1 9.00244 17.7359 21.6445
2103 1 10.8509 19.683 18.4379
1226 1 12.707 16.2259 20.3204
2823 1 14.2045 16.0534 18.243
2822 1 12.4082 17.6293 18.2915
2825 1 14.2 18.034 19.9396
2903 1 14.312 19.973 18.0683
2102 1 12.2559 19.7042 19.906
2036 1 12.4169 18.3786 21.8948
2039 1 14.1481 16.27 22.0992
3625 1 15.7838 15.9699 19.9069
3622 1 15.5964 18.1305 18.1418
3623 1 17.8337 16.2015 18.4568
3707 1 17.3593 17.9578 19.8597
1150 1 15.8034 19.829 19.8662
2906 1 15.968 18.0406 21.725
3703 1 17.5355 19.7806 18.0278
5305 1 19.7956 17.9187 21.8021
4425 1 19.5671 16.017 20.1415
4422 1 19.759 17.5451 18.3014
4423 1 21.4786 16.0739 18.213
4428 1 21.9055 17.752 20.0601
5222 1 23.4069 17.5372 18.5307
5307 1 23.7007 19.4911 19.8593
4503 1 21.5394 19.6445 18.2103
4427 1 21.6108 15.7125 21.5515
5223 1 27.1983 16.0728 19.309
5221 1 25.4087 15.6989 18.1553
5228 1 25.4138 17.8389 19.5022
6022 1 27.3035 17.989 17.9818
5303 1 25.2395 19.4784 17.9816
6105 1 26.6033 20.1964 19.9102
5226 1 25.0782 20.6166 21.5304
5229 1 27.0621 17.7711 21.1004
6023 1 29.3416 16.0972 18.0801
6825 1 31.1403 15.9538 20.1103
6025 1 28.9799 17.8434 19.5952
6822 1 30.8313 18.1625 18.3789
6028 1 28.8295 19.5663 18.0242
6905 1 30.9967 19.5409 20.3814
6826 1 30.8197 17.6575 21.5919
7632 1 -0.471213 18.0491 20.0945
7703 1 -0.501022 19.6698 17.8256
7622 1 32.8597 17.7309 20.1149
6823 1 32.9744 16.266 18.0138
7625 1 34.518 15.9306 20.2546
7628 1 34.8159 17.6648 18.2596
6903 1 32.898 19.7578 18.052
426 1 -0.131251 19.692 21.8223
7705 1 34.4944 19.6643 20.2481
6828 1 32.8122 16.17 22.1477
6907 1 32.6213 19.6325 21.9655
342 1 -0.119091 16.1356 21.6506
7626 1 34.4726 18.0669 22.1044
587 1 3.35008 21.3963 19.9735
502 1 1.60005 21.5739 18.1925
585 1 1.51569 23.212 19.9419
506 1 1.34451 21.5635 21.6054
583 1 3.66035 23.3279 17.9462
511 1 3.04417 19.605 21.6907
508 1 4.79325 19.4185 19.8653
1307 1 6.79163 19.6327 18.4671
499 1 5.31679 21.2673 18.2581
1385 1 6.83022 21.4727 19.9431
1383 1 6.94731 23.0955 18.126
1386 1 5.12339 23.5115 19.8793
2189 1 6.86638 23.2609 21.7652
348 1 8.70002 19.5488 20.2537
2098 1 8.71349 21.1233 18.2061
2181 1 10.6141 21.3739 20.1821
1379 1 10.7233 23.5615 18.2249
1463 1 8.48975 22.867 19.6908
1308 1 8.77126 21.8317 21.7901
2985 1 10.6163 23.5844 21.7563
2104 1 12.3323 21.4964 18.1605
2905 1 13.889 21.2878 19.8372
2983 1 14.0365 23.4908 18.3045
2902 1 12.3205 23.5816 20.1601
3785 1 14.7113 23.3087 21.0866
4505 1 19.7336 19.6351 19.5743
3705 1 15.7903 21.6902 17.618
3702 1 16.5498 23.1803 19.8858
3708 1 18.1111 21.4364 19.7987
3783 1 17.7335 23.36 17.9046
2914 1 18.2266 23.5929 22.1904
3787 1 16.1957 21.388 21.5819
4506 1 19.7391 21.73 21.6809
4585 1 19.5192 23.3074 20.0528
4502 1 19.9179 21.5595 17.817
4508 1 21.406 21.4547 19.8213
5302 1 23.3195 21.3316 18.2452
5385 1 23.3301 23.4248 19.8006
4583 1 21.3424 23.6473 18.1475
4587 1 21.3362 23.5023 21.6756
5309 1 22.8923 21.6457 21.7739
5308 1 25.1339 22.0819 19.5935
5383 1 25.4038 23.737 18.1669
6102 1 26.8316 21.4161 17.6756
6185 1 27.2818 23.2302 19.8802
5387 1 25.0333 23.0453 21.919
6108 1 28.4385 21.4708 19.5339
6183 1 28.7178 23.339 17.8547
6902 1 30.8579 20.9799 18.2111
6985 1 30.826 22.7809 19.924
6909 1 30.983 21.404 21.8677
6987 1 32.5145 23.5425 21.3754
7708 1 -0.376263 21.6032 19.7305
7783 1 -0.38509 23.5909 18.2496
6983 1 32.4935 23.6193 18.4394
6908 1 32.7618 21.3327 20.1449
7702 1 34.5576 21.52 18.2195
7785 1 34.4086 23.3289 19.993
7706 1 34.6457 21.7403 21.6952
586 1 -0.349442 23.1769 21.5851
582 1 1.64835 25.5222 17.9273
665 1 1.24762 27.0676 20.0136
667 1 3.48957 27.1734 21.913
7711 1 1.61664 25.1052 21.7339
588 1 3.44084 25.3182 19.8672
7863 1 -0.233076 26.9898 18.2045
663 1 3.24215 27.0486 17.9717
1465 1 5.19316 27.2782 19.8112
1382 1 5.16563 25.5655 17.9713
1467 1 6.81957 25.2584 20.1875
1468 1 6.82962 26.9536 18.3018
591 1 4.88549 25.1335 21.7488
1470 1 6.67609 27.1099 21.824
2182 1 8.55237 25.0701 18.5185
2265 1 8.62221 26.8742 20.0735
2188 1 10.4902 25.339 19.7629
2263 1 10.2428 27.0325 18.3382
2108 1 8.62639 25.3334 21.6837
2267 1 10.1405 27.5688 21.794
3065 1 12.4853 27.2612 19.924
2982 1 12.4189 25.258 17.9868
2988 1 14.0915 25.236 20.0221
3063 1 14.374 27.065 18.3979
2990 1 12.3541 25.726 21.7449
3066 1 14.3806 27.2407 21.624
3865 1 16.533 26.9189 19.7861
3782 1 16.1385 25.1084 18.4156
3788 1 17.8299 25.0744 20.1534
3863 1 18.1127 27.0107 18.0442
4665 1 19.5863 27.0345 19.9368
4582 1 19.2977 25.0717 18.1354
2987 1 16.0151 25.2823 21.7249
4586 1 19.7529 25.4432 21.8857
4588 1 21.3573 25.0856 19.807
5382 1 23.2437 25.4462 17.9497
4668 1 23.3361 26.9504 20.1555
4663 1 21.0457 27.1334 18.2139
5392 1 22.9834 25.16 21.6287
5463 1 24.8639 26.9587 18.1569
5465 1 25.1403 25.3686 20.2438
6182 1 26.9399 25.2085 18.2647
6265 1 26.7263 26.9632 19.6689
6186 1 26.9594 24.9637 21.5589
6188 1 28.993 25.3657 19.7099
6263 1 28.8582 27.1132 18.1413
6982 1 30.8738 25.3272 18.0597
7065 1 30.9756 27.2193 19.7121
6988 1 32.6624 25.4981 20.1102
6267 1 28.8286 26.8071 21.4358
7788 1 -0.137683 25.074 20.0727
7063 1 32.8751 26.9965 18.0547
7782 1 34.7432 25.4877 18.4589
7865 1 34.6501 27.2555 20.1524
7786 1 34.7507 25.2167 21.6568
7867 1 -0.284892 27.3775 21.8765
662 1 1.48003 28.7886 18.157
745 1 1.2401 30.5514 20.0006
7943 1 -0.792314 30.8962 18.2724
666 1 1.644 28.8545 21.7378
7947 1 -0.478433 30.5111 21.7528
668 1 3.26793 28.913 20.0437
743 1 3.04515 30.6089 18.4149
1462 1 5.15596 28.9184 18.2248
1545 1 4.93694 30.6836 19.8704
1472 1 6.89907 29.1206 20.0569
1543 1 6.91608 30.9394 17.991
1466 1 5.02912 28.7378 21.7327
1546 1 6.42899 31.0272 21.9746
2262 1 8.55175 28.8343 18.1354
2345 1 8.74437 30.6689 19.8295
2268 1 10.2004 28.915 19.9567
2343 1 10.4701 30.5559 18.1406
2266 1 8.4056 29.1762 22.148
3062 1 12.2651 28.5797 18.0253
3145 1 12.1256 30.4115 19.979
3068 1 13.9048 28.9915 20.0233
3143 1 14.4299 30.5937 18.2216
3945 1 14.352 30.5512 21.7484
2186 1 12.1848 28.8007 22.0916
3862 1 16.2784 28.9342 18.5049
3947 1 15.8397 30.6823 20.2367
3866 1 18.0715 28.92 20.2978
3943 1 17.9492 30.7138 18.339
4745 1 19.6838 30.6774 20.1235
4662 1 19.6081 28.9324 18.032
3868 1 19.5883 28.7371 21.962
4743 1 21.1439 28.9721 19.9036
4744 1 21.329 31.0127 18.0539
5462 1 23.1577 29.1787 18.6594
5466 1 23.1264 28.9138 21.8037
5545 1 23.1438 30.9284 19.9229
4747 1 21.6085 30.7159 21.6876
5468 1 25.0189 28.4432 20.3107
5543 1 25.1494 30.849 18.1572
6262 1 26.7462 28.9344 18.3249
6345 1 27.0407 30.9467 19.8584
6266 1 27.1221 28.1132 21.7076
6268 1 28.741 28.9716 19.8941
6343 1 28.6524 30.8987 17.985
7062 1 31.1562 29.0046 18.0803
7145 1 30.5076 30.7736 20.0948
7068 1 32.5055 29.1522 20.16
7066 1 30.5699 28.4989 21.7844
6347 1 28.6046 30.4765 21.7823
7868 1 -0.481962 28.882 19.5667
7143 1 32.7201 30.8279 18.1337
7862 1 34.0656 28.9217 18.3371
7945 1 34.3653 30.8734 19.9045
7866 1 34.3593 29.1329 21.6435
7147 1 32.5597 30.483 21.9484
7307 1 -0.445741 -0.20439 20.1379
825 1 2.98299 -0.433565 19.8728
742 1 1.22975 32.4133 18.5764
25 1 1.60129 34.6485 19.9022
7223 1 -0.418618 34.1253 18.4199
748 1 3.35159 32.5727 19.8737
27 1 3.16435 34.3424 21.6105
746 1 1.28916 32.5773 21.3746
7227 1 -0.642273 34.687 21.9024
828 1 6.94795 -0.682756 20.2378
822 1 5.13543 36.2166 18.1296
829 1 4.80496 36.1427 21.5472
23 1 3.05311 34.2006 18.3473
1548 1 6.76381 32.394 20.0318
1542 1 5.09739 32.7325 18.2114
826 1 5.09975 34.2894 20.0857
823 1 6.81173 34.3378 17.9778
827 1 6.87332 34.3372 21.7872
1622 1 8.63633 36.0462 18.2192
1626 1 8.54699 -0.356403 21.9737
2348 1 10.6078 32.1629 19.9886
2342 1 8.70085 32.7098 18.7072
1625 1 8.95837 34.4661 20.0144
1623 1 10.3353 34.1804 17.8951
2346 1 8.48632 32.4478 21.7881
2428 1 13.9608 -0.780154 19.7169
2422 1 12.044 36.4326 17.9429
3148 1 14.0153 32.6103 20.0435
2425 1 11.9851 34.2168 19.674
3142 1 12.3569 32.3468 18.2458
2423 1 13.7223 34.5193 18.0077
2352 1 12.4542 32.5244 21.8828
3228 1 17.6987 -0.377241 20.0477
4022 1 19.8042 -0.44758 18.214
3942 1 16.0036 32.384 18.4847
3225 1 16.0236 34.4568 19.7571
3948 1 17.8668 32.4305 20.0378
3223 1 18.0015 34.602 18.2892
3227 1 19.5136 34.3371 20.2666
3147 1 15.8742 32.2289 22.581
3946 1 17.6645 34.2296 21.8355
4023 1 23.4314 -0.670131 17.6993
4742 1 19.4166 32.6062 18.1722
4748 1 21.2406 32.7756 20.2568
5542 1 23.4304 32.4322 17.8763
4025 1 21.754 34.4076 17.9875
4825 1 23.4333 34.0579 19.9875
5621 1 27.0423 35.8908 18.2328
4828 1 25.1845 36.1729 19.9783
6342 1 26.6237 32.4964 17.8184
5548 1 25.2274 32.1487 20.1965
4823 1 24.8015 34.1566 17.9182
5625 1 26.8717 33.9452 19.7087
6422 1 30.7173 -0.522803 18.3899
7142 1 30.6127 32.461 18.4376
5623 1 28.7438 34.3306 18.1532
6348 1 28.7184 32.6273 19.7481
6425 1 30.5653 34.6939 20.1513
6426 1 30.5964 -0.125773 22.0376
7948 1 35.9636 32.3729 20.5294
7222 1 33.9703 -0.535535 18.2293
6428 1 32.3928 -0.575479 20.1235
7148 1 32.4969 32.5132 19.9133
6423 1 32.3795 34.4476 18.3825
7942 1 34.4903 32.7914 18.4349
7225 1 34.4658 35.0312 20.2455
7228 1 34.2111 36.4515 22.0313
6427 1 32.0612 34.621 21.9846
7946 1 33.9259 33.0469 21.5972
7308 1 1.37702 1.73854 23.3186
7389 1 1.5874 3.36465 25.3691
36 1 3.26564 -0.290474 23.3361
7232 1 -0.473069 1.13465 25.2153
109 1 36.0428 3.17232 23.8198
7396 1 3.31282 1.66738 25.0839
912 1 5.24353 3.05636 21.5308
907 1 7.14808 1.48759 21.6231
112 1 3.33981 3.49761 23.143
32 1 4.93647 1.57816 23.3092
4219 1 6.64378 1.44249 24.8881
1793 1 5.25586 3.1554 25.1453
1630 1 7.02672 3.52338 23.0742
987 1 8.85645 3.33577 21.9015
1715 1 8.78832 1.36612 23.3641
1636 1 10.386 0.961789 25.2606
1712 1 10.5273 2.8752 23.4607
916 1 8.61599 3.07258 24.8771
1707 1 12.8135 2.89501 22.2728
1790 1 12.7567 2.97692 25.4325
1709 1 12.3382 1.15163 24.1722
2433 1 14.3781 1.02516 25.5463
4120 1 14.4586 2.54471 23.8338
3232 1 15.9872 0.886382 23.4126
2594 1 16.3232 2.88924 25.5738
3955 1 17.7861 1.26695 25.4769
4115 1 17.6137 3.17098 23.8052
1955 1 19.5552 2.82927 25.3425
1631 1 16.3486 36.1929 25.423
6404 1 18.5875 36.3559 24.0449
3069 1 20.084 -0.273912 25.6755
4026 1 19.6453 36.188 21.8753
4906 1 23.1498 2.97372 21.9749
3307 1 21.5639 1.29189 21.6541
4826 1 23.266 36.1161 21.6318
4109 1 19.8574 1.52365 23.6449
4189 1 21.8268 1.38102 25.4679
3231 1 23.2079 1.19546 23.5707
4116 1 21.5136 2.83535 23.3198
4106 1 23.6442 3.06818 25.0002
4032 1 21.4662 -0.232455 23.4112
4754 1 23.1824 36.1051 25.2211
5630 1 27.5566 1.43388 23.7446
5560 1 25.1847 1.19911 25.3105
5709 1 27.2072 3.24243 25.7211
6593 1 25.849 3.11228 23.8088
7954 1 26.9888 -0.82641 25.5722
4832 1 24.8704 36.1339 23.7804
4827 1 26.8024 -0.390976 22.0192
5707 1 30.7965 3.11126 21.8548
5705 1 28.6902 1.27825 21.8464
6512 1 28.8735 1.24549 25.8007
6509 1 30.5237 1.22525 23.8145
6506 1 28.8785 3.33304 23.3235
4191 1 30.3287 3.19259 25.2475
5626 1 28.759 -0.646215 23.6036
6507 1 32.4799 1.28331 21.9447
6516 1 32.1709 1.25559 25.4602
7394 1 32.3168 3.18301 23.7127
7309 1 34.2988 1.70705 23.5026
7401 1 34.5054 3.32042 25.7953
7386 1 1.63903 5.08164 23.4268
1156 1 1.67063 6.82595 25.5189
190 1 35.9851 5.42675 25.0587
7399 1 -0.272483 7.18988 23.2882
196 1 3.31449 6.60331 23.6234
7387 1 3.31135 4.97023 25.6074
989 1 6.908 5.04142 21.3951
187 1 5.23736 5.15998 23.15
1079 1 7.33616 6.66448 23.5458
7395 1 7.43651 5.17406 25.2699
5256 1 4.72926 6.90361 25.4318
2506 1 10.7659 4.66947 21.8762
3488 1 9.42243 6.97796 25.3506
909 1 8.98949 5.16816 23.3305
1866 1 11.0145 6.93487 23.4187
606 1 11.0395 4.88409 24.933
2586 1 12.543 7.00389 21.8383
2587 1 14.348 5.14597 21.5314
2510 1 12.9416 5.02093 23.4089
3390 1 14.4756 6.96129 23.5492
2596 1 12.8018 7.05288 25.3292
834 1 14.2756 4.87283 25.5327
2511 1 15.557 4.79577 23.4171
2600 1 15.8725 6.72267 25.7845
4110 1 17.7683 6.66754 23.6075
1720 1 17.7753 5.04164 25.5757
4364 1 19.8692 4.45824 23.4714
4269 1 19.6299 6.36741 25.1451
4186 1 19.3343 6.33298 21.8054
4187 1 21.6085 5.16816 21.9168
4112 1 23.3809 5.37651 23.4365
4192 1 21.4893 6.74061 23.525
5069 1 21.9676 4.59289 24.8882
1393 1 23.4135 6.99055 25.2273
4987 1 24.9319 4.75155 21.9125
3258 1 25.4594 5.34349 25.4475
4107 1 25.1613 6.75639 23.3663
4909 1 27.0343 5.22311 23.2612
5871 1 26.9273 7.06604 24.9662
5787 1 28.6959 5.02156 21.6806
4992 1 29.3053 6.27489 23.4652
5875 1 31.0178 4.9141 23.3
5786 1 28.6956 4.96094 25.4268
6589 1 30.5676 6.86252 25.2284
7312 1 31.7635 5.17279 25.3991
6590 1 32.2558 6.75989 23.8042
116 1 34.1843 5.13483 23.4606
5804 1 33.9447 7.03307 25.3501
269 1 1.91246 8.35929 23.7755
347 1 3.43152 10.6961 23.515
7472 1 1.52873 10.7229 25.6309
222 1 -0.340738 9.74721 23.6207
6669 1 -0.669834 8.01539 25.4795
7414 1 3.58067 8.94411 25.5183
353 1 4.70039 10.6057 21.6356
1065 1 6.74538 8.84048 22.1006
271 1 7.11635 8.93546 25.0408
997 1 4.93313 8.73273 23.6563
5249 1 5.47042 10.6585 25.3285
1949 1 6.9675 10.9025 23.4499
1865 1 10.8858 8.74858 21.7738
913 1 8.81508 10.4335 25.1326
911 1 10.7825 8.68958 25.2683
1867 1 8.77288 8.56918 23.7484
2592 1 10.7397 10.365 23.5783
2589 1 10.595 10.8238 26.9585
3396 1 12.8014 8.64964 23.8568
2512 1 12.5316 10.4293 25.8215
3549 1 14.9848 10.1645 23.8027
4351 1 15.0375 9.1745 25.8608
4193 1 16.4209 8.3576 23.5697
4271 1 16.7949 10.5066 25.5785
3473 1 17.936 8.5422 21.8187
5953 1 18.246 10.3455 23.4441
6037 1 17.943 8.32561 25.5045
1095 1 19.5361 10.2532 25.3836
5567 1 19.4766 8.36392 23.5968
4266 1 19.857 10.2051 21.7074
4272 1 21.298 8.30283 21.5192
4996 1 21.0788 10.1848 23.6346
4989 1 22.9551 8.67869 23.5143
4434 1 21.3484 8.12637 25.2309
5951 1 22.9537 10.3291 25.3941
2836 1 23.0362 11.9121 23.4386
5866 1 27.0067 10.4479 21.4904
4994 1 26.8901 8.58304 23.2623
6599 1 25.1112 8.62589 25.3378
5146 1 25.1574 10.3532 23.4977
5880 1 26.7399 10.4315 25.0602
5867 1 28.7976 8.57292 21.5685
6666 1 30.7679 10.0946 21.4643
5792 1 28.8779 10.2896 23.2373
6671 1 28.825 8.53875 25.1094
5872 1 30.4707 8.52942 23.5286
6592 1 30.7775 10.5337 24.8712
277 1 32.3207 10.3532 23.1169
7470 1 34.3958 8.47231 23.2014
7551 1 34.1166 9.78942 25.247
5879 1 31.9011 8.5606 25.8034
7391 1 32.5541 12.0827 24.9406
440 1 2.7069 12.3148 21.7568
266 1 -0.67865 12.0318 22.0663
270 1 1.32743 12.1523 23.7096
7552 1 1.62118 14.2542 25.3441
7475 1 3.4357 14.1406 23.5617
1146 1 3.4014 12.4873 25.3374
7316 1 -0.261534 15.6991 25.0793
349 1 -0.622619 13.777 23.7555
343 1 6.65471 12.2053 21.6569
7636 1 5.32798 14.0881 21.5015
2757 1 5.27125 12.7375 23.6285
2113 1 7.23419 14.5233 23.3865
1062 1 7.02719 12.5768 25.6932
1147 1 5.5569 14.4153 25.3585
1229 1 8.91509 14.4955 21.9399
1868 1 10.8397 12.7125 22.0367
1872 1 8.72182 12.4908 23.4146
430 1 10.7197 14.3441 24.0593
4435 1 8.5297 14.524 25.2044
2827 1 10.4105 12.5657 25.2064
6695 1 9.12082 12.7413 27.0166
2672 1 14.7014 11.6962 22.2077
4998 1 14.6548 12.0018 25.1144
1071 1 12.3919 12.6791 23.5664
3469 1 14.5988 13.8315 23.4424
2748 1 12.9807 14.4234 25.1853
3471 1 16.3093 14.2304 21.4583
4346 1 19.5295 14.0956 21.6278
4350 1 17.9607 12.7875 25.4883
4352 1 19.6409 12.2606 23.8564
6680 1 16.5621 12.1812 23.4161
3706 1 16.0399 14.2248 24.9516
2832 1 18.3274 14.2053 23.6326
3716 1 20.1113 13.9119 25.7141
4345 1 21.3175 11.8305 21.6668
5227 1 23.2406 14.1044 21.7435
5151 1 21.5244 11.9694 25.0707
4347 1 21.2785 13.9738 23.3075
6121 1 23.1777 14.2284 24.9098
5947 1 27.1937 14.0399 21.3329
6110 1 24.9812 12.3731 24.8397
4270 1 25.1893 14.393 23.5884
5794 1 27.1394 12.1844 23.268
3711 1 27.5014 13.9994 24.9557
6672 1 31.1991 13.8047 21.2664
6750 1 30.8955 12.1465 22.9964
5952 1 29.2878 14.1415 22.9581
6831 1 28.8256 12.2171 24.6077
7873 1 30.69 13.8806 25.1365
5232 1 28.5908 16.1246 25.0686
7479 1 35.99 11.4536 25.2656
6747 1 32.6156 11.8675 21.4093
7547 1 34.6103 14.1182 21.7772
346 1 32.609 13.6894 23.2121
6676 1 34.5248 11.7892 23.5952
276 1 34.2 13.7854 24.852
7546 1 34.6746 15.7678 23.4932
7631 1 3.21509 15.9341 21.5002
2275 1 1.76182 15.8692 23.6968
7476 1 3.52456 16.3247 25.5414
6911 1 1.31386 17.7107 25.1166
6832 1 -0.121736 17.8479 23.2796
2666 1 3.26988 17.8692 23.4914
7724 1 -0.370427 19.3711 25.2886
1068 1 3.1758 19.9499 25.1214
7715 1 3.37028 18.2541 27.1757
1149 1 6.9933 16.3919 21.7222
1225 1 5.10654 17.9252 21.9165
1232 1 6.90221 16.3197 25.5672
510 1 4.76018 15.9064 23.4699
433 1 4.94937 18.1472 25.1639
596 1 7.35091 18.0658 23.6548
2027 1 10.7066 16.132 22.0611
2804 1 8.98898 16.326 23.5874
4600 1 10.6169 16.4688 25.2849
2747 1 10.3437 18.3483 23.6943
3493 1 8.95515 18.1237 25.3779
1145 1 10.6658 20.1421 25.3048
2828 1 14.1619 19.8832 21.7828
2838 1 14.4368 16.1646 25.0873
2028 1 12.3843 16.3164 23.8564
3721 1 12.5529 18.3458 24.8265
2114 1 14.4442 18.1374 23.5148
3552 1 17.7729 19.453 21.5922
3626 1 17.7207 16.0242 21.7692
4432 1 17.8952 16.0782 25.2271
1316 1 16.29 18.1627 25.1061
4431 1 19.7303 16.1068 22.967
3547 1 16.3438 16.1792 23.4512
4433 1 17.9144 17.8897 23.3086
4673 1 19.4637 18.3178 25.4433
3709 1 21.3054 16.1518 24.7403
6034 1 23.592 15.9987 23.3481
4507 1 23.5289 17.6397 21.5135
3007 1 22.1223 17.7496 23.3359
6038 1 24.277 18.4968 25.0067
3627 1 23.8644 19.4483 23.0945
5946 1 27.236 16.0305 23.1739
6193 1 26.0747 16.4025 25.2104
6029 1 25.3849 15.9499 21.3997
2916 1 25.359 17.71 23.185
5869 1 28.7667 17.9823 27.062
6109 1 26.9036 19.3792 22.8261
6746 1 30.7809 16.0917 23.8271
6027 1 29.1757 16.1937 21.6318
6026 1 28.7285 17.9361 23.7263
6112 1 29.0211 20.1344 25.8358
351 1 30.7617 17.7248 25.5826
5399 1 30.36 19.5297 23.5873
6830 1 32.8426 15.7578 24.9351
6111 1 32.8431 17.9333 23.9146
4521 1 34.6881 17.2379 25.3302
7709 1 32.3728 19.6946 25.4023
593 1 34.4594 19.9756 23.4846
1311 1 3.46097 23.4982 21.3743
509 1 1.44652 19.826 23.4653
6360 1 1.63105 23.1395 23.2846
1473 1 3.31487 21.8096 23.4724
519 1 1.33283 21.6833 25.4031
2200 1 3.13936 21.426 26.9647
675 1 4.95658 21.5086 21.8793
2105 1 7.01692 19.9726 22.0722
432 1 5.1747 19.7807 23.6425
1309 1 7.12383 19.9861 25.5319
1387 1 7.09359 21.768 23.8978
1332 1 4.94779 21.4985 25.2889
2191 1 10.6432 19.6857 22.0032
1233 1 8.85523 20.1133 23.6025
2183 1 10.7075 21.7403 23.361
3077 1 10.5027 23.9304 25.2377
1397 1 9.05405 24.0864 23.57
1314 1 9.05377 22.1373 25.3183
2910 1 12.5511 21.8157 21.8291
2107 1 12.3701 20.0502 23.434
3478 1 14.3315 19.9883 25.2228
2030 1 12.5047 23.6374 23.6978
3799 1 12.6589 22.0022 25.0048
3796 1 14.3483 21.84 23.5918
2989 1 14.6167 23.9417 25.1066
3791 1 15.9353 19.9516 23.6328
4593 1 17.8408 19.7919 25.0008
2908 1 16.0479 23.502 23.5827
4594 1 16.3439 22.1204 25.3144
2273 1 17.6871 21.6385 23.2886
5473 1 17.7717 23.9307 25.8244
5152 1 19.3405 21.7614 25.5619
4426 1 19.6193 19.8751 23.5187
4354 1 21.5634 19.4925 21.6294
4589 1 19.8677 23.5737 23.7424
5310 1 21.868 19.6709 24.6167
4512 1 21.3457 21.6474 23.5949
4597 1 23.8 21.1835 24.8212
5306 1 23.2234 23.4479 23.4641
6106 1 27.1503 21.5878 21.7081
5391 1 25.9415 21.249 23.8731
6994 1 27.6078 22.0835 25.5224
5388 1 27.1017 23.4504 23.7108
5316 1 25.0281 23.1006 25.0095
2920 1 26.9461 18.6834 25.179
6107 1 28.8625 19.326 21.4174
6187 1 28.9336 23.5468 21.3471
6913 1 28.9307 21.1329 23.2477
1441 1 28.8505 23.978 25.1998
6910 1 30.3211 21.9494 25.389
6906 1 30.7858 23.6751 23.3006
1873 1 36.2039 23.3707 25.2696
431 1 36.299 21.5848 23.5825
6990 1 32.8827 23.4957 25.4534
6912 1 32.7446 21.8847 23.5944
7789 1 34.4183 21.7911 25.4003
7707 1 34.4839 23.3184 23.2278
7790 1 3.15959 23.4784 25.594
592 1 3.28632 25.4372 23.6066
755 1 1.46339 25.3249 25.2676
7871 1 1.59906 27.2527 23.9171
7884 1 3.0822 27.2459 25.6054
1392 1 6.79928 23.8142 25.3746
520 1 5.11618 23.4379 23.6462
600 1 6.61079 25.1388 23.4137
670 1 4.6876 27.2497 23.8356
2190 1 6.78668 27.7328 25.7536
7800 1 4.93423 25.4241 25.4888
1388 1 8.21523 25.3496 25.725
1391 1 8.31143 27.2442 23.8716
1390 1 10.6419 25.8651 23.3031
2185 1 10.3361 26.6227 25.4225
4561 1 12.633 27.0474 23.7116
3152 1 12.4738 25.3774 25.4844
3786 1 14.2364 25.2916 23.2306
1480 1 14.3329 27.5566 25.3799
3867 1 17.9662 26.7994 22.1055
4756 1 15.7095 25.6925 25.4339
2986 1 16.1543 26.8791 23.5151
2992 1 17.8782 25.3061 24.0155
7003 1 17.8759 26.67 25.8489
4667 1 21.451 26.9467 21.7227
4609 1 21.4289 23.5401 25.5185
6209 1 19.8514 25.4187 25.6944
3792 1 19.5734 26.9512 23.7718
5386 1 23.7009 24.9976 25.6795
5472 1 21.5619 25.3071 23.4661
4671 1 21.8503 26.8859 25.5605
5555 1 23.1935 26.9257 23.6063
5467 1 25.0823 26.9216 22.0606
4592 1 25.1942 26.8657 25.3344
4591 1 26.8706 25.0159 25.8116
6190 1 25.1601 24.832 23.6375
6269 1 26.9093 26.5269 23.5056
6986 1 30.8623 25.3209 21.3384
7076 1 30.9948 25.1273 25.2461
6192 1 28.918 25.0562 23.069
6273 1 29.0034 26.4642 25.0924
6992 1 30.9817 26.7969 23.3785
1389 1 -0.317326 27.4635 25.5651
590 1 -0.229171 25.01 23.2102
7067 1 32.6996 27.1017 21.7712
7787 1 32.7097 24.8852 23.7281
7159 1 32.7668 26.8326 25.0708
7792 1 34.7912 25.5038 25.0334
7794 1 34.6005 27.2611 23.6801
747 1 3.45615 30.7868 21.5652
672 1 3.25911 29.1992 23.4117
7949 1 1.21699 29.1641 25.4739
673 1 1.24175 30.7607 23.751
2029 1 3.13937 31.1513 25.4843
1547 1 4.9382 30.9086 23.6706
756 1 6.45426 28.773 23.7364
1471 1 6.74853 30.8896 25.4652
4751 1 4.79943 29.1118 25.6765
2347 1 10.4197 30.6397 21.7824
2192 1 8.56716 30.9342 23.8228
515 1 8.47053 29.1602 25.957
2349 1 10.3683 28.8553 23.9701
2218 1 10.3388 30.4976 25.7494
1627 1 10.648 32.7173 23.9069
1559 1 12.1308 29.0669 25.7203
3067 1 12.3844 30.5934 23.6174
5477 1 14.3212 28.8927 23.3877
2430 1 14.0643 30.5025 25.559
3151 1 16.0687 28.7568 21.8145
3872 1 17.7676 30.887 21.9931
4910 1 16.1949 28.7003 25.4055
3146 1 15.9904 30.5142 23.984
4590 1 17.8335 28.7113 23.8263
3072 1 17.9316 30.5881 25.7069
4749 1 19.6108 30.4791 24.0667
3159 1 16.008 32.221 25.6904
3876 1 20.023 28.6474 25.4831
4669 1 21.5475 28.7353 23.7986
5551 1 23.1907 30.4198 23.6449
6355 1 21.5126 30.7143 26
4666 1 23.2806 28.5505 25.5263
5547 1 25.0245 30.3031 21.6327
5389 1 25.0679 28.8246 23.5787
6349 1 27.263 30.3228 23.5984
7082 1 25.3586 30.2669 25.393
5474 1 27.199 28.1187 25.6967
6272 1 29.057 28.439 23.6237
6433 1 28.6983 30.9314 25.1614
7073 1 30.6259 28.4997 25.3283
7149 1 30.5446 30.3688 23.5358
749 1 36.0378 29.1091 23.7091
751 1 -0.651221 30.847 25.5764
7070 1 32.3246 28.8966 23.5684
6517 1 32.2359 30.9452 25.1728
7072 1 34.4 28.9589 25.7655
6353 1 34.4725 31.2092 23.3088
26 1 1.48723 -0.402539 22.0287
7311 1 -0.037614 -0.60634 23.4146
5104 1 1.58765 -0.522283 25.4272
7951 1 1.06133 32.9626 25.2079
29 1 1.74954 34.5449 23.7523
7950 1 -0.342412 32.6211 23.4661
113 1 -0.466162 34.6662 25.1823
830 1 2.84985 32.3298 23.2632
115 1 3.3255 34.4545 25.2504
752 1 5.00461 32.6506 21.7997
1557 1 6.68317 -0.392979 23.2607
7390 1 5.065 -0.471184 25.2782
1553 1 5.37454 32.6157 25.7128
3160 1 6.61537 32.508 23.5315
200 1 6.83393 34.5864 25.5059
2276 1 4.93137 34.5304 23.3076
1632 1 10.5073 33.7947 21.7734
1558 1 8.8742 35.5765 25.2474
1714 1 10.3434 35.9327 23.4503
750 1 8.3971 32.9932 25.5245
915 1 8.45572 34.2947 23.3473
3074 1 10.5624 34.365 25.6661
2426 1 12.2751 -0.425413 22.0157
2431 1 14.1317 35.9389 23.794
2427 1 14.1147 34.5586 21.8181
7234 1 12.4196 35.7483 25.3539
2196 1 12.2595 32.1423 25.7795
1710 1 12.2581 34.5952 23.398
3153 1 13.67 32.5305 23.7301
2514 1 14.6078 34.1449 24.8986
4746 1 19.5041 32.5383 21.8473
2513 1 16.6634 34.465 23.8873
3869 1 17.9535 32.4241 23.9379
4031 1 18.5181 34.7426 25.684
4750 1 19.6558 32.821 25.7003
4027 1 21.5907 34.3494 21.7064
5546 1 23.6033 32.3728 22.1748
3952 1 19.5526 34.2275 23.6329
3949 1 21.0102 32.4526 23.53
3233 1 22.9753 32.2201 25.4124
3239 1 21.3923 34.3425 25.3266
5556 1 22.9121 33.9932 23.7312
6346 1 27.1548 32.5601 21.9982
5552 1 24.9881 34.1751 21.9262
5629 1 25.1094 32.3274 23.6836
5631 1 26.8274 34.3796 23.801
5393 1 26.6808 32.3806 25.2177
6125 1 24.8339 34.3396 25.2227
5627 1 28.4871 34.5863 21.7487
6434 1 30.4277 -0.606224 25.6559
7146 1 30.6311 32.4005 21.6544
6351 1 29.1134 32.6733 23.8106
6591 1 28.7689 34.0622 25.6987
6352 1 30.6825 32.6448 25.5926
6429 1 30.4624 34.584 23.532
7152 1 34.2923 -0.302209 25.2936
7236 1 32.3736 32.6468 23.6822
6432 1 32.5449 -0.217908 23.6499
753 1 34.4539 34.2144 23.4637
3730 1 34.7856 32.8464 25.398
114 1 32.3589 34.8451 25.17
111 1 1.43002 1.52607 26.7913
6130 1 1.7503 2.88877 29.0344
38 1 2.88256 2.77643 31.0263
6045 1 35.4991 1.48091 28.7695
30 1 3.04273 0.901946 29.1121
992 1 3.57894 2.87503 27.3175
7393 1 5.41958 1.33171 27.1096
1633 1 5.11686 2.90113 28.8492
6675 1 6.66394 1.23003 28.9308
5640 1 7.1962 2.88219 26.9065
676 1 5.11817 -0.32758 28.7431
7658 1 5.02846 1.47048 30.6841
760 1 7.3491 3.06008 31.1281
1786 1 10.6978 2.89471 26.6689
2459 1 8.96417 0.954394 26.9276
2761 1 8.87528 2.74818 28.4686
3501 1 10.438 1.16724 28.9497
7568 1 8.56035 0.76817 30.9759
1711 1 14.2772 2.55369 27.2924
5965 1 12.0557 1.10182 27.3386
3313 1 13.8266 0.469377 28.6053
2432 1 14.3836 35.4368 27.0921
4201 1 12.6179 1.79283 29.8116
374 1 16.1858 0.971196 27.4228
2437 1 12.7472 -0.295524 31.4835
5574 1 16.035 2.79189 28.8873
3957 1 17.9663 1.34724 29.3758
1476 1 17.9807 3.1242 27.2139
2354 1 16.7117 35.9915 29.3838
4670 1 18.0995 3.02841 31.1826
5793 1 19.6909 1.45039 27.5069
7153 1 21.9596 1.37395 29.375
5874 1 23.4467 1.9226 30.9978
5713 1 23.7269 1.47306 27.2615
1795 1 21.7805 3.25057 27.1067
4682 1 20.0294 1.68119 30.817
6369 1 23.8942 3.49746 28.994
4039 1 20.158 -0.331253 29.0794
4991 1 23.7446 -0.633027 28.8428
1011 1 25.2808 1.40727 28.973
5714 1 26.9242 1.28755 27.3513
5072 1 26.9597 3.43188 29.0777
6510 1 25.4585 3.40023 27.2178
5170 1 26.7105 1.1743 31.1177
4912 1 24.4386 -0.186734 31.2551
7469 1 30.6902 1.27728 27.5406
4123 1 28.6669 1.30093 28.9469
6436 1 28.7362 3.37581 27.6126
120 1 30.629 3.13588 29.02
4918 1 28.592 -0.722513 27.2554
4993 1 28.4002 35.6959 30.5178
5633 1 -0.297341 3.3736 26.6833
7481 1 31.7456 1.08479 29.6094
2848 1 31.8588 3.49844 27.0104
1001 1 33.8216 1.21803 26.9845
6608 1 33.4365 2.38589 30.3648
7310 1 34.1993 3.36145 28.2182
7231 1 32.073 36.3023 27.3758
2598 1 31.1078 36.0301 31.2357
275 1 1.45918 5.06558 27.436
7397 1 1.43028 6.99768 28.6728
1143 1 3.75105 6.76271 27.549
7900 1 -0.747864 6.31608 27.5817
1158 1 -0.182079 4.35046 29.064
996 1 3.23862 4.7118 28.6586
2527 1 1.57591 4.89411 30.5948
993 1 5.38685 4.93668 27.1745
1870 1 7.34891 6.51365 27.2165
273 1 5.64586 6.28195 28.8383
4353 1 6.89375 4.11821 29.0398
1876 1 7.22637 5.99522 30.6494
34 1 9.14641 4.79297 26.8633
1874 1 11.3605 6.87865 27.2001
2436 1 11.0323 3.56428 29.044
1074 1 9.24738 5.93385 29.0679
5634 1 9.18925 4.18614 30.4384
40 1 13.7384 4.06547 29.6831
835 1 12.311 4.64142 27.4498
2676 1 11.3168 5.9781 29.4055
5337 1 13.9015 6.51143 27.3619
2037 1 15.3452 5.98188 29.6013
1076 1 13.4494 1.89707 33.0582
4675 1 19.993 3.68534 29.1227
4274 1 15.8527 4.83215 27.4413
4276 1 17.9019 6.29812 27.8501
1648 1 17.5884 4.65258 29.7316
3310 1 19.8082 5.96945 28.9006
5149 1 19.7234 5.00207 31.2031
5795 1 19.9329 4.60709 26.8837
5553 1 23.503 4.94955 26.8601
5957 1 22.0561 4.72199 28.6636
2201 1 21.7183 6.62773 27.1732
4430 1 23.1889 6.83061 28.9567
3234 1 23.4612 4.88465 31.163
850 1 21.2425 6.74959 31.3807
7482 1 25.1554 5.44024 29.3971
5073 1 24.8465 6.75636 27.2944
5791 1 26.9186 5.29739 27.7916
5023 1 26.9767 7.44931 29.4402
5949 1 28.8579 5.71041 29.2767
5017 1 30.2357 5.2401 27.2555
5001 1 28.2149 7.3694 27.3567
6829 1 29.8822 7.81283 29.3814
5821 1 28.5301 3.18974 30.5535
7400 1 33.837 6.92248 29.2334
5497 1 33.6494 5.76443 27.3713
1796 1 31.9786 5.13435 29.3628
7558 1 34.1838 4.88696 30.297
6598 1 31.9062 7.45038 27.9674
1072 1 1.82613 9.12845 27.5763
1953 1 2.45141 11.1319 28.9664
6618 1 3.67252 10.5967 27.0462
7404 1 -0.492649 10.0021 27.1559
1016 1 1.87627 8.80793 30.2956
7735 1 -0.521519 8.12214 29.0443
3394 1 7.21064 8.27991 29.0451
2116 1 5.54785 8.47591 27.1272
3634 1 6.84238 10.502 27.2282
1789 1 6.49895 10.0276 30.0888
7480 1 3.0614 11.4757 31.1346
1070 1 5.3553 7.838 30.6226
7633 1 8.37982 8.70176 27.1375
5078 1 10.4572 8.72777 27.9767
6844 1 8.7314 10.431 28.7792
2032 1 12.4507 10.6275 28.2778
1234 1 9.42865 9.22448 31.0596
3555 1 10.8787 10.3876 29.8993
5235 1 15.0275 10.3039 27.8065
6862 1 13.0685 8.78511 27.0218
2675 1 14.1123 8.11268 29.0928
995 1 14.1987 12.5239 28.5131
2754 1 16.2744 8.9398 31.1963
5020 1 16.2961 8.01422 28.9318
4429 1 17.5887 9.36864 27.6372
2590 1 18.5247 8.85287 29.8341
4764 1 19.5138 8.32904 27.026
7318 1 16.5075 10.7486 29.8354
3011 1 19.6692 10.8646 28.8824
3964 1 20.8746 8.2818 29.1619
1634 1 22.7251 10.5499 28.66
4602 1 23.1859 8.72147 27.0921
6039 1 21.0547 10.2419 27.0022
6595 1 22.8248 8.89211 30.5197
5311 1 25.2812 10.7831 27.0163
4438 1 25.0046 9.1219 29.0876
2522 1 26.7426 9.04938 27.3751
5956 1 26.7789 12.5978 27.0018
7098 1 26.3706 11.1459 29.5291
4194 1 28.4831 10.5255 26.915
7557 1 30.4614 9.38932 27.3068
838 1 28.2385 9.74345 29.2396
2285 1 30.3577 10.8521 29.0395
5870 1 30.8265 11.7828 26.7339
929 1 31.6772 11.5567 31.3133
5007 1 32.1707 9.36972 29.5219
35 1 32.789 10.5318 27.6866
5563 1 34.6689 10.9283 28.9978
6751 1 34.48 8.46121 27.5397
3645 1 1.76546 12.4145 27.2276
6999 1 1.3146 14.5094 28.4034
7398 1 3.41908 14.2128 26.8083
1000 1 3.26717 13.3476 29.0115
5406 1 -0.250653 14.6677 30.3593
7680 1 1.58158 13.0851 30.4146
3720 1 2.44576 15.4869 30.7616
3315 1 3.88678 9.39664 29.1898
3656 1 5.30276 12.6938 27.1027
1315 1 7.36034 12.9838 28.245
1871 1 5.4147 14.5376 29.0082
2996 1 4.04205 13.5981 31.1608
1239 1 5.48314 11.8291 29.4326
3550 1 9.25162 14.5572 28.9482
3719 1 10.9483 14.3285 26.7538
3710 1 10.7748 14.5112 30.6499
3472 1 10.1779 12.4097 28.9413
2429 1 7.74277 12.1292 30.4431
1152 1 12.6306 12.5327 26.7747
2995 1 14.3468 14.4919 26.9377
3880 1 12.4533 14.5223 28.5779
33 1 13.7207 14.4569 30.7602
1082 1 12.5294 12.4394 30.3446
777 1 12.2098 16.3338 30.2522
3467 1 16.2783 12.359 27.1402
4130 1 18.2124 14.4971 27.0034
3480 1 16.127 14.4012 28.945
4610 1 17.7982 12.7008 29.0064
3906 1 17.8542 16.2046 28.467
3244 1 20.814 13.1093 30.284
5394 1 19.8357 14.8368 29.1299
3628 1 18.6381 11.5598 27.051
2991 1 21.1062 12.6508 27.8947
5950 1 21.9819 15.0987 27.0334
770 1 21.4846 16.4206 29.5111
5240 1 23.2793 12.446 26.5909
6031 1 24.5681 15.7261 28.2731
7239 1 24.3695 12.2798 28.793
3797 1 25.3949 14.2602 26.3407
7637 1 23.634 16.4759 25.8718
4945 1 27.1369 15.8156 27.1527
5080 1 27.0182 15.6473 29.3946
6756 1 29.0325 14.2662 26.8008
2624 1 28.4264 13.8062 29.7409
6684 1 28.5624 12.0564 28.6346
6120 1 30.6884 13.7834 28.6598
5165 1 29.3375 16.2443 28.4795
1249 1 30.8151 13.8242 31.1851
6278 1 30.7529 16.2415 30.3331
7720 1 -0.273489 13.6104 26.6165
358 1 -0.173539 12.1331 28.805
6930 1 32.6815 12.728 29.4819
7550 1 32.4378 13.9552 26.4438
1160 1 34.8504 14.1068 28.8711
7966 1 34.4434 12.4657 26.8694
7154 1 32.436 15.2725 28.5541
6993 1 34.6187 15.7714 27.2121
2538 1 3.40756 16.0265 28.1817
6040 1 -0.704998 16.3588 28.9458
457 1 1.58022 16.229 26.8801
5959 1 1.42374 17.5721 28.8849
2202 1 -0.014827 20.9861 32.0357
7712 1 1.06878 19.6372 27.0649
7556 1 3.04618 18.275 30.6581
2842 1 5.3352 17.6806 29.2382
357 1 5.37191 16.6345 27.1172
6749 1 7.23064 15.9558 28.9847
1236 1 7.45115 17.9272 27.0935
1164 1 7.03319 19.669 28.8275
2921 1 5.39082 19.9076 30.41
3629 1 4.56677 15.9277 30.6381
910 1 10.684 16.1 28.5252
2197 1 8.74306 16.0279 27.0404
1237 1 9.40706 18.031 28.9874
2915 1 10.8247 18.3265 26.9944
4761 1 10.9637 18.4827 30.6497
2110 1 9.11432 19.9453 27.2145
1647 1 10.9242 20.5096 28.7769
2750 1 9.57799 16.5368 30.9097
3800 1 12.237 16.4921 27.0042
2751 1 12.6245 18.384 28.8099
4509 1 14.1948 17.8814 26.9381
3871 1 13.9821 16.2839 28.798
2194 1 15.9432 16.0513 27.2806
4678 1 15.6809 18.091 28.7345
3717 1 17.6971 18.3444 27.1458
3874 1 17.3148 20.1931 28.8061
5404 1 18.9714 20.2898 27.3051
4436 1 15.8861 16.1814 30.2432
5400 1 19.6236 16.4757 31.2133
6914 1 23.4417 17.534 28.724
2063 1 19.7834 16.1863 26.9613
6208 1 19.3937 20.2277 29.9805
4519 1 19.8332 17.9636 28.8188
5484 1 21.6418 18.0392 26.8864
2543 1 21.8588 18.5099 30.1689
5150 1 24.8668 17.765 30.2517
6996 1 25.5607 18.0049 27.6532
2829 1 26.9948 17.9337 29.4687
5478 1 23.3782 19.6345 27.1897
6991 1 25.6001 18.6868 32.1953
6116 1 30.8635 16.0528 26.9591
6670 1 27.1258 19.7873 27.4169
3713 1 31.4825 17.7421 28.8007
6692 1 30.7637 19.5375 27.4092
6275 1 29.4379 18.7001 29.1288
6677 1 -0.361668 17.6781 27.0702
5958 1 35.3034 18.8809 28.778
7629 1 33.0836 17.6474 26.9171
3078 1 33.8226 17.0931 29.0736
7797 1 32.8066 16.8859 31.3031
7555 1 34.4558 20.6897 32.6077
5246 1 1.88873 20.2616 30.9364
7804 1 1.1106 21.369 28.9446
6752 1 35.7268 23.9891 28.9326
198 1 2.87974 24.6979 30.369
7409 1 35.5477 21.6942 27.6144
1414 1 3.06911 23.1561 28.5044
6836 1 1.17517 22.8621 30.6742
7723 1 3.26488 20.6968 29.5497
2924 1 7.10794 21.6727 30.6483
2204 1 5.22577 19.4827 27.0562
2111 1 6.97274 21.7243 26.8238
512 1 5.25701 23.3543 26.9462
2117 1 5.42649 21.429 28.5284
1242 1 3.4618 22.0197 31.484
2760 1 6.90105 23.8033 28.7471
589 1 8.89343 21.7985 29.0242
1469 1 8.74075 23.5481 27.3252
4117 1 10.3466 23.3945 28.7164
2926 1 10.8508 22.0682 26.7375
3877 1 8.66422 23.5483 30.8636
7171 1 9.26787 20.6667 31.1255
1489 1 10.9713 21.9726 30.5413
4525 1 12.9384 20.3793 30.6865
2033 1 12.4361 19.9636 26.8267
470 1 14.3377 19.9036 28.2983
1231 1 14.4049 21.9164 27.1376
831 1 12.4746 21.9756 28.5654
37 1 14.2108 23.859 29.2084
2187 1 12.4853 23.7446 26.9042
6189 1 16.2207 20.0897 26.7986
3635 1 17.77 21.722 30.9836
3961 1 15.4323 22.001 30.0511
5237 1 15.8978 23.9239 27.3648
2830 1 17.565 22.3225 27.6106
4029 1 17.3307 23.6264 29.4175
6197 1 17.8943 24.2707 31.6669
6919 1 19.8268 22.545 29.5308
5322 1 25.5971 20.912 26.2953
5233 1 19.7249 23.8331 27.5501
5398 1 21.7342 21.0937 26.4548
5264 1 21.4136 20.2718 28.534
4839 1 21.7809 22.7642 28.0857
3568 1 28.7055 22.9621 27.4122
4520 1 25.1149 19.881 28.9163
3798 1 23.6927 21.8693 29.0415
5745 1 26.5047 21.7013 28.5583
3630 1 27.7522 22.9071 30.0268
4838 1 26.2978 23.4088 31.8338
685 1 24.9942 23.6691 29.9312
5719 1 23.7223 19.8085 31.1287
5312 1 27.8477 20.3858 30.3771
2907 1 30.0419 23.6189 29.3285
6113 1 28.857 20.8441 28.4592
5395 1 31.8759 19.4124 30.5825
6114 1 30.9425 21.5825 29.4948
5469 1 31.0535 23.5724 27.1616
427 1 29.1455 22.5825 31.7524
350 1 34.493 19.7521 26.8133
6191 1 32.771 19.5977 28.6106
5154 1 32.0561 21.4067 27.1298
6115 1 34.5657 24.0224 27.0522
6117 1 35.7265 21.1322 29.6713
7881 1 33.483 24.3772 31.7084
1337 1 33.5415 22.8393 29.0032
5915 1 33.4377 21.0881 30.2064
4762 1 31.9656 22.7174 31.5341
7718 1 0.954855 23.2492 27.1372
846 1 0.965524 25.0064 29.1182
7874 1 1.22928 27.244 27.4591
3978 1 0.366048 24.898 31.7653
428 1 2.81078 24.9582 27.2254
5712 1 2.90219 27.0213 29.2408
677 1 36.3268 27.2378 29.0852
524 1 4.74449 26.3679 31.1729
832 1 5.00229 27.2697 27.2258
2106 1 6.65681 25.5169 27.3155
513 1 5.05422 25.4744 28.8571
1306 1 6.70187 26.9316 29.3871
1310 1 6.69141 24.916 31.3239
5242 1 5.72085 28.8433 31.0479
5252 1 8.86907 25.2795 29.1741
133 1 10.4368 25.1796 27.382
7796 1 8.64466 26.8187 27.4368
3950 1 10.9412 26.9795 29.1512
1649 1 7.6955 27.2469 31.6032
4203 1 10.9894 24.1343 31.3684
3953 1 13.7454 25.4889 27.5732
7089 1 12.401 24.8799 29.4748
6511 1 12.1618 27.3279 27.281
516 1 15.6334 24.0571 31.322
2752 1 13.8209 27.0969 29.2007
4516 1 15.8341 26.9423 27.4819
3959 1 15.9137 25.3898 29.5307
3071 1 17.7042 25.5127 27.7138
4601 1 17.775 27.1986 29.1676
7078 1 19.6218 27.0132 27.5128
4676 1 17.589 26.8086 31.3268
7247 1 14.8555 26.8362 31.2392
930 1 23.6612 23.245 26.9091
6284 1 18.9734 25.3844 29.5524
4515 1 23.0785 27.043 27.5909
4355 1 21.7506 25.1544 27.0388
5320 1 23.7245 25.1343 28.6701
3487 1 21.3156 26.9039 29.3755
2120 1 23.2747 26.7801 30.4547
4755 1 27.5824 24.8369 28.5633
4606 1 25.8508 26.023 30.2765
5506 1 26.0297 23.494 27.4069
7094 1 27.8024 27.3241 30.3379
1652 1 27.9121 24.9772 31.0126
3167 1 30.2096 24.6915 31.4965
7736 1 29.5429 25.112 27.173
6916 1 28.3136 26.6366 27.5549
7955 1 32.1411 24.5309 29.7604
2692 1 29.8517 26.0763 29.5912
678 1 30.9603 26.9374 27.5382
7713 1 -0.0748446 25.2078 27.06
7554 1 33.9897 25.8417 29.8572
355 1 32.6464 25.4294 27.6044
7074 1 34.5621 26.8271 27.0861
5550 1 31.9147 27.0343 29.903
7237 1 3.27415 28.9504 30.9387
757 1 1.16233 30.8833 27.3598
674 1 3.02284 28.9739 27.241
447 1 -0.277161 29.2715 27.3089
7956 1 35.9579 30.4389 29.3599
7004 1 1.26474 28.8638 29.2895
3892 1 2.98349 30.7229 29.0526
3076 1 1.4686 30.7849 30.8627
669 1 6.88505 29.0908 28.116
7162 1 5.11539 30.559 27.3167
2693 1 4.54009 28.858 29.0689
1484 1 6.09181 30.9918 29.3241
2212 1 8.723 30.5819 27.6202
1564 1 8.66888 27.9534 29.3831
1479 1 10.5134 28.9313 27.6534
1475 1 10.5196 30.7516 29.3486
7870 1 8.21895 30.0494 30.1243
6157 1 10.1572 28.9938 30.8127
1721 1 8.55136 32.6468 29.2181
3080 1 10.2566 32.4234 27.0415
2195 1 12.5007 28.8738 29.3703
3870 1 12.6459 30.5214 27.5427
2115 1 14.1981 28.7526 27.4346
1717 1 14.2837 31.1371 29.3328
1794 1 11.9177 30.9366 31.1955
1635 1 14.3717 29.321 30.849
1554 1 16.2013 30.2081 27.4088
2351 1 15.7146 28.6405 29.2159
3158 1 17.9586 28.6942 27.2803
3229 1 18.0939 30.5487 29.0912
3812 1 19.7533 28.5903 29.7814
3149 1 19.5493 30.7658 27.132
4672 1 17.7694 30.7602 33.0254
3318 1 21.4222 30.8281 29.0777
4511 1 23.0935 29.271 29.0921
3873 1 21.2083 28.9571 27.6083
3235 1 23.3735 30.7003 27.2912
2912 1 25.1235 27.9677 29.2587
4040 1 25.2162 28.7822 27.0761
7717 1 27.125 28.4784 28.3235
5639 1 27.0869 30.5259 27.0066
3157 1 25.4844 30.5846 28.7503
6271 1 25.6981 26.2678 27.5482
6358 1 29.0865 28.9652 26.7838
6368 1 30.8891 30.5768 27.0632
5558 1 30.5931 28.9026 28.7902
4753 1 28.9934 30.2378 28.9109
7086 1 27.4007 30.0626 30.5147
7069 1 32.2744 28.6446 26.9102
681 1 33.9091 28.3101 29.2366
7151 1 34.3294 30.86 26.9011
7952 1 32.6654 30.3744 28.7522
1419 1 -0.690251 28.862 30.9805
2702 1 0.692074 -0.136491 29.0057
2439 1 3.47037 0.202404 26.9492
764 1 2.86559 32.8454 27.2129
6995 1 -1.09219 -0.244688 27.2074
7071 1 0.886171 34.845 27.2161
7229 1 36.3209 32.6606 27.2497
2934 1 0.995995 32.2862 29.1117
604 1 35.6134 34.5599 28.6443
7314 1 2.54476 33.0298 30.67
1551 1 7.05175 -0.407253 26.873
906 1 2.40203 34.746 28.9144
1560 1 5.22999 33.0578 29.081
6998 1 6.66759 32.699 30.9951
7330 1 6.99817 34.7482 29.1747
7872 1 7.23738 32.1346 27.2959
31 1 4.95068 34.6199 27.4785
2123 1 6.64043 -0.714896 30.8724
2523 1 8.65967 36.3805 28.9975
7315 1 8.4634 34.4849 31.1289
1637 1 10.4585 35.8234 27.4166
2280 1 8.55137 34.2679 27.612
2535 1 10.304 34.4431 29.2995
3794 1 10.3818 32.5794 30.9794
7261 1 15.7894 34.4165 31.4988
7572 1 12.0008 36.0614 29.2883
1638 1 12.3073 32.4754 28.9437
2521 1 12.3853 34.4323 27.4479
3879 1 14.0104 34.6842 29.2411
1639 1 14.218 32.5895 27.4266
920 1 13.9119 32.7027 31.2881
914 1 11.9479 34.1539 30.8712
4034 1 18.1351 -0.313577 27.4301
2360 1 15.9223 32.893 29.3369
5390 1 16.5565 34.7254 27.2076
1730 1 17.638 32.3421 27.6329
2364 1 17.8651 34.4978 30.401
4830 1 19.0734 34.186 28.1185
4118 1 19.8266 32.503 29.3088
6356 1 21.8097 -0.0890779 31.1307
4911 1 21.8131 -0.263072 27.4182
4596 1 23.3919 32.4245 29.2542
3956 1 21.2677 32.5771 27.5264
4775 1 21.8341 34.491 29.0033
4124 1 23.0865 33.9154 27.0853
7896 1 21.4199 32.6646 30.6623
3150 1 24.9522 36.3069 27.0557
5711 1 26.66 32.3986 29.3924
4752 1 25.0645 32.1797 27.1229
7877 1 26.3341 35.9388 28.9947
3171 1 24.969 34.1297 28.6483
3320 1 26.7492 34.1389 27.0382
3402 1 23.1404 34.8476 30.762
3073 1 25.8055 34.0367 31.1465
1875 1 30.1827 36.1017 28.8378
6431 1 28.9599 31.9949 27.3748
6430 1 30.7037 33.9819 27.3346
5789 1 28.6333 34.0765 28.902
3875 1 30.9714 31.8125 28.9699
4836 1 30.6606 33.5307 30.5635
7408 1 32.9638 32.7316 27.0793
195 1 33.8683 -0.355164 29.182
290 1 32.3458 34.2089 29.1244
1901 1 33.936 34.8056 27.1795
42 1 34.22 32.4021 28.7658
7958 1 35.838 2.87543 30.9973
201 1 1.21053 1.43323 31.0433
6535 1 35.0779 0.950932 32.7817
7730 1 34.9373 2.40199 34.8407
5802 1 27.6565 7.68185 35.3905
5179 1 0.347792 1.28173 34.2525
6524 1 2.77238 2.82222 34.2522
6046 1 2.45579 0.881183 32.7866
7240 1 4.52747 2.68442 32.6426
2673 1 2.9873 -0.487074 30.86
1951 1 6.52956 3.91945 33.2402
6840 1 30.78 23.3037 33.701
6060 1 7.09019 -0.131781 34.3932
1313 1 4.70367 -0.356785 32.6528
7593 1 9.17725 2.56026 32.6873
2604 1 9.59587 1.16438 34.6305
2365 1 6.68659 1.25838 32.5778
4363 1 8.29849 2.44857 35.5163
1801 1 5.9158 2.41657 34.7119
2753 1 8.93466 36.1478 32.8111
2677 1 11.0656 1.90274 31.5395
1787 1 12.1477 1.43102 34.9954
197 1 15.3598 1.06829 30.5271
607 1 14.839 1.74515 34.9376
6540 1 17.7599 0.265536 31.4831
7251 1 19.9127 -0.19928 32.7664
2435 1 16.5338 2.2738 33.2147
4126 1 16.7238 0.172603 34.2335
2671 1 19.092 2.08855 33.1495
4921 1 23.0727 6.62595 35.3918
2198 1 18.9417 35.2141 34.9295
5643 1 15.0664 -0.0310135 32.7041
4835 1 21.7062 2.46771 32.4811
2272 1 21.6066 4.95757 32.93
1719 1 23.2521 1.49749 34.4976
6765 1 23.9103 3.39216 32.9216
5004 1 22.445 -0.377959 33.1938
5156 1 25.4131 3.24588 30.9462
4267 1 26.9988 3.21506 32.8041
6280 1 25.1015 1.48592 33.0207
4595 1 27.0681 0.951955 34.3357
5071 1 25.3668 3.55291 34.5726
1965 1 24.5506 36.278 34.5456
5652 1 28.571 0.192471 32.4878
3841 1 29.507 2.68268 32.7435
5554 1 30.0378 1.18679 30.8902
7150 1 30.9829 0.0534694 33.4751
5570 1 30.6672 30.5243 34.1779
4829 1 28.5706 35.4909 34.2318
1084 1 31.6315 3.47531 31.1852
4768 1 31.4611 2.19059 33.5177
4936 1 32.8066 0.694117 31.5358
758 1 33.4814 2.58483 32.7092
6461 1 0.983533 3.38134 32.5584
1094 1 -0.595076 6.28449 30.5207
1601 1 1.0229 6.26372 33.0336
7233 1 2.81163 7.87262 33.1448
3639 1 2.95752 4.98301 32.6395
1081 1 4.62204 4.1876 30.7214
3474 1 5.24348 5.79053 32.2908
2520 1 4.45169 4.31213 34.6611
203 1 6.93497 4.80316 35.2103
4385 1 3.17965 6.45218 30.359
991 1 3.83561 6.39018 34.631
3633 1 12.9063 5.98425 31.108
3314 1 8.70498 4.84658 33.1601
5596 1 11.3777 5.47194 32.7947
921 1 9.90933 30.451 34.9628
1967 1 7.33153 6.66442 33.5305
1877 1 9.55144 6.5329 31.4523
1957 1 9.53289 6.59896 34.4966
2221 1 13.3155 4.04073 33.8854
4285 1 15.8727 3.6526 31.2185
7101 1 11.1122 3.46257 33.8875
356 1 12.8283 3.66118 31.7228
435 1 13.2341 7.03772 33.3201
7791 1 30.6831 32.8927 34.6095
2518 1 11.9901 5.81071 34.9657
4759 1 17.0847 2.13269 35.6015
1644 1 35.5817 30.6727 34.7378
3401 1 17.0035 6.04829 34.5201
1800 1 17.8615 4.49739 32.6741
4769 1 15.9089 3.93278 34.6081
7585 1 18.5133 8.46573 34.7077
5483 1 18.4899 4.3878 34.89
5720 1 17.5283 6.53614 30.8522
2913 1 19.3138 8.17165 31.7812
7638 1 31.5869 20.9613 35.5792
5637 1 19.2428 6.36962 33.21
3156 1 21.728 3.59603 30.5295
3400 1 23.6142 6.37849 33.136
360 1 22.6962 8.98649 35.2442
5557 1 28.3458 33.1513 35.1469
4038 1 20.5485 7.40728 35.3279
1177 1 8.18424 8.60876 35.4089
6759 1 27.1742 5.24253 30.6382
5079 1 24.8742 7.55181 31.0718
5160 1 25.6426 5.34193 32.5346
5162 1 25.2986 7.27519 34.927
4122 1 28.9189 3.873 34.6413
5171 1 26.8246 7.32615 32.8371
2684 1 12.8544 9.06786 34.2108
1811 1 30.1848 5.36 31.268
4916 1 28.1811 5.25841 32.9799
5724 1 28.3662 7.8214 31.1159
4923 1 30.8891 4.75296 33.3033
5960 1 30.5034 7.43937 32.8005
6044 1 31.7893 7.16039 30.7355
6931 1 34.3696 6.90825 32.2649
1878 1 33.0031 5.24008 32.2669
5873 1 34.9238 5.90321 35.2813
117 1 32.5426 6.65764 34.1539
1881 1 35.5405 4.87925 32.4769
44 1 32.8681 4.1286 34.5774
1791 1 -0.186014 8.33266 31.7664
6838 1 -0.768888 7.74892 33.9092
6763 1 1.85586 9.9473 32.2591
2284 1 -0.0626636 10.5203 30.5076
6758 1 1.57285 9.23755 34.4014
5401 1 -0.25424 10.0454 33.2107
1155 1 5.42763 7.8647 33.6139
1312 1 4.65526 9.53472 31.724
6119 1 3.80716 10.2337 34.1868
310 1 6.49569 10.2503 33.9437
3317 1 7.29327 8.40543 31.7578
3822 1 20.7409 33.5278 35.3611
7499 1 8.87573 8.58307 33.3643
2209 1 11.7207 8.10562 30.4061
2674 1 11.1524 7.99619 33.1075
5397 1 12.069 10.2729 31.7165
3477 1 34.7248 34.7682 32.8317
1244 1 9.05044 21.9651 35.0507
3399 1 15.1129 8.19779 33.8191
2919 1 13.9072 8.81841 31.6852
4113 1 13.9885 10.6358 30.3289
1087 1 15.2986 5.93514 32.4626
7647 1 14.4516 10.5161 33.1387
2516 1 16.383 11.4015 32.0557
7081 1 16.3803 10.1922 34.3114
1799 1 18.4903 10.2615 32.986
1713 1 17.2519 8.01447 32.9198
924 1 17.6499 12.2288 34.0485
2434 1 20.5325 9.84259 34.5346
5480 1 18.5233 11.9096 31.17
2669 1 20.5455 9.95363 30.9503
4035 1 21.9614 8.21598 33.145
3312 1 22.0986 10.5659 32.4625
5315 1 24.18 8.9522 33.2645
5074 1 22.9229 12.2096 30.8041
130 1 27.6815 30.4486 34.3356
3395 1 22.6407 34.7585 35.7553
7473 1 26.2602 9.08282 31.6769
4846 1 26.5986 9.56778 34.4057
4280 1 25.9554 11.6602 33.1451
7075 1 24.4063 10.731 31.022
4132 1 25.9402 13.7258 28.844
4834 1 26.6538 4.93661 35.5256
3878 1 19.2878 14.026 35.1705
7235 1 28.0523 10.2977 31.8024
5799 1 30.1814 9.43092 30.9003
7444 1 28.4948 8.59689 33.604
6518 1 28.4084 11.8784 33.4993
5236 1 30.5472 10.3715 32.8117
4618 1 30.4714 11.2302 35.182
4212 1 34.4151 8.78899 30.7512
142 1 32.2932 9.10234 32.0444
5811 1 33.863 10.8721 31.2807
281 1 34.2197 9.41816 32.9903
6921 1 31.4871 8.73146 34.6145
857 1 32.7788 11.0729 33.8034
7588 1 35.1338 11.8777 33.0476
7869 1 1.21867 28.8391 35.1945
6673 1 2.41396 14.3236 32.9273
6851 1 2.55299 12.1862 35.6441
6755 1 0.980979 16.3021 32.4056
6350 1 0.901931 12.3741 32.389
7406 1 0.596105 14.4751 34.1697
1097 1 5.50258 11.7039 32.2264
1159 1 3.49108 12.3645 33.2933
6917 1 5.56573 13.2164 35.1969
5153 1 6.25762 13.9821 31.1672
2049 1 7.291 12.6799 33.2668
3732 1 5.33587 16.4004 34.5474
2295 1 31.6635 31.9283 32.5798
918 1 7.78691 10.6604 32.2613
4226 1 8.6727 14.08 31.6042
3637 1 9.76085 11.9414 31.3888
517 1 7.02927 15.1223 33.4854
2193 1 9.51267 10.9212 33.9878
2758 1 10.4412 13.4193 33.1649
7722 1 4.05026 0.921665 34.3755
3557 1 12.3005 11.4573 33.8198
2041 1 13.9685 12.6011 32.2847
1952 1 13.4363 14.1401 34.3961
1010 1 12.2048 14.8718 32.5939
2678 1 15.2153 12.4545 34.6921
3389 1 16.0505 13.2185 30.8422
2686 1 16.1856 14.0487 33.4396
4437 1 19.2712 14.1679 32.489
2026 1 18.0737 14.4281 30.2664
3632 1 17.35 15.5508 32.0911
6785 1 20.4584 12.2318 33.5932
4844 1 32.2334 34.5897 32.7259
4273 1 21.5435 14.7575 31.5634
5657 1 22.7381 14.1637 28.792
4199 1 21.4997 13.6156 34.9074
2356 1 31.2667 34.9691 34.802
771 1 27.1757 13.2551 34.3373
5876 1 25.2307 13.1133 31.0734
2826 1 26.1588 16.038 31.6485
3960 1 23.8029 15.1506 30.7629
4349 1 23.1501 13.0563 33.156
1250 1 25.2086 14.2667 33.4439
6282 1 32.8513 31.7313 35.4232
3882 1 27.3798 13.7018 32.0667
7560 1 29.516 11.8841 30.913
6679 1 31.1069 15.7687 32.8072
6841 1 31.0064 12.9148 33.3421
1573 1 28.8398 15.57 31.4465
7953 1 31.4252 15.0641 34.847
7342 1 33.8687 14.87 30.9428
1477 1 33.3236 13.2048 32.3493
5238 1 35.8426 14.3918 32.6639
4481 1 35.1794 12.5532 30.665
6537 1 35.6095 16.714 31.0691
7590 1 33.5641 16.5123 33.1705
434 1 33.7563 14.3541 34.3283
3813 1 14.5969 16.1862 34.7515
7963 1 3.25888 18.1526 34.5587
5954 1 0.157022 18.8146 30.6669
1807 1 3.41388 16.515 32.8483
7561 1 1.62961 18.6305 32.8015
6835 1 29.7321 6.6301 35.2473
6285 1 0.826492 17.821 34.7626
4439 1 7.26591 18.3984 30.8169
2593 1 5.07921 14.1846 33.1399
127 1 7.18172 16.147 31.5014
7010 1 5.63602 17.6913 32.0982
5182 1 7.36991 17.6156 33.8165
7710 1 32.8203 32.3048 30.6237
131 1 9.73309 17.7945 35.0786
4197 1 9.47999 15.8681 33.2249
2833 1 8.86665 18.2634 32.2844
4840 1 11.7113 19.6779 32.8858
4198 1 11.0468 17.3187 32.8584
4362 1 14.3903 17.8574 30.906
5402 1 12.4099 16.6147 35.0046
3884 1 14.6846 15.4142 32.4678
3801 1 13.3586 17.2587 32.909
3083 1 16.081 17.6657 32.9764
3240 1 23.0508 4.40563 34.8713
2670 1 14.2465 19.7806 32.727
6538 1 18.5952 17.8536 33.1464
3642 1 17.6157 17.9717 30.2418
3814 1 20.0113 18.8862 31.6821
4925 1 16.3075 18.2953 35.6264
4995 1 -0.121305 4.34009 34.5718
4114 1 17.503 15.9757 34.1985
6932 1 29.237 28.504 34.6026
6762 1 0.757793 24.6404 34.5715
140 1 22.5445 19.5583 32.9866
5798 1 23.0215 15.5899 33.1347
4441 1 22.5924 17.0784 31.4994
5418 1 20.1406 16.0375 33.9404
4841 1 22.1292 17.4358 34.9291
1399 1 20.5975 18.6212 33.8845
7317 1 33.5891 34.6953 31.0326
603 1 29.1141 14.4852 33.4406
7817 1 23.9535 17.9107 33.7336
51 1 26.0132 16.8217 33.8685
3641 1 9.07421 25.1254 35.2265
6196 1 1.58831 26.7854 35.3535
521 1 32.8419 18.7969 32.734
6724 1 28.2083 18.3312 31.4189
5891 1 30.3573 17.72 32.1524
3484 1 29.8019 20.4207 31.5739
6834 1 31.495 17.5908 34.2725
2831 1 28.7412 17.1461 33.7769
6764 1 34.2673 18.7874 30.8658
5476 1 35.9071 18.2302 32.7311
1552 1 11.8724 28.8069 35.3642
1887 1 35.7989 16.477 34.245
2038 1 24.9944 25.8999 35.3181
2286 1 4.15408 19.7799 32.5318
6833 1 1.97507 20.8373 33.715
1396 1 2.17788 23.1108 32.7472
1400 1 1.79182 22.6017 35.5045
761 1 35.0814 24.6337 33.3662
5549 1 6.1486 21.7868 34.5723
6555 1 33.7726 33.762 34.9345
2040 1 7.33341 19.9692 32.8305
3025 1 3.80154 22.1314 34.3688
5029 1 5.26808 23.3588 30.3999
2839 1 7.79602 22.3114 32.7578
3155 1 5.38741 21.6258 32.357
2993 1 7.24929 24.1962 33.8136
3728 1 9.53942 19.812 33.7859
1975 1 10.171 22.2702 32.5872
2277 1 13.1708 24.9836 35.3084
2835 1 12.4452 19.1002 35.2837
3560 1 11.3772 21.8955 34.6447
5564 1 13.044 25.3313 31.7666
2994 1 13.5362 22.8904 31.1987
4514 1 12.6625 21.4781 32.7524
7000 1 13.9797 21.2775 34.6339
4518 1 15.6367 21.8063 32.1196
3789 1 14.0139 23.2264 33.5465
7337 1 21.0782 0.599597 34.8917
7714 1 15.641 19.7269 30.3978
4914 1 28.7901 32.3815 30.5167
3968 1 16.2276 20.9606 34.611
7241 1 17.7214 22.1805 33.2749
3731 1 17.2797 19.7799 32.3075
5319 1 20.1789 23.9495 31.4534
4216 1 19.9851 24.9897 35.3775
5321 1 18.5763 20.1334 34.2359
3325 1 20.8982 20.6982 34.7231
2375 1 21.3045 24.7943 29.3893
7725 1 21.9024 21.2159 30.8249
280 1 19.8059 21.5615 32.3453
5230 1 19.7454 22.8512 34.2994
932 1 21.7625 23.1594 33.06
5486 1 27.545 19.209 33.7251
3883 1 23.3993 21.7787 34.5386
4292 1 22.5982 23.4482 30.6387
2270 1 23.9141 22.0569 32.2497
3075 1 25.1971 20.4605 33.8389
6624 1 25.6915 20.8957 30.7658
2945 1 2.37498 16.0853 34.9853
6948 1 25.9345 22.7231 34.1901
2119 1 27.4326 21.3188 35.1518
2998 1 31.7948 21.0392 32.8687
2856 1 27.3222 21.1306 32.5567
1161 1 29.5285 21.3726 33.9042
6042 1 0.286456 11.621 34.7949
6773 1 -0.209734 19.9195 33.9964
534 1 5.52996 18.8845 34.3983
7156 1 29.7241 19.1692 33.9049
3729 1 35.5881 23.2857 31.1902
1075 1 -0.0837018 22.5982 34.0144
7007 1 33.6416 22.744 33.2037
124 1 33.1124 -0.275357 33.9968
5082 1 0.746323 26.898 33.2483
3712 1 2.48445 25.5886 33.0906
1727 1 3.48118 27.4003 32.8144
5416 1 35.6782 28.3465 33.5586
1718 1 1.48503 27.0091 31.0566
7553 1 1.42057 28.9402 32.4978
4279 1 29.1189 1.49479 34.6437
1946 1 4.50384 23.8467 32.8431
7428 1 5.74659 26.1086 33.2254
4713 1 3.96998 26.63 35.2601
3008 1 17.8836 26.7189 35.2948
5341 1 14.6204 6.09043 34.9688
2602 1 10.1765 26.5327 31.3707
6636 1 11.9156 24.3458 33.7641
6304 1 9.27853 24.902 32.9433
4528 1 8.15503 26.588 33.8077
1556 1 9.69251 28.3942 33.3132
2358 1 12.4251 27.5178 31.2642
4361 1 11.7188 26.9231 33.4012
762 1 14.2572 26.0739 33.6188
6600 1 20.872 5.18333 35.0703
7323 1 15.8866 28.1618 34.8885
4777 1 16.0979 24.4535 33.7283
4861 1 16.553 26.7008 33.1423
7498 1 18.4392 25.3754 33.5513
5966 1 20.7744 2.85453 34.3737
6915 1 19.9268 26.4007 31.4083
5173 1 21.8747 25.4756 32.4211
4632 1 21.1332 28.5214 31.8098
4030 1 20.6271 27.0888 33.9781
2932 1 23.2102 27.3182 33.1891
4231 1 23.7537 24.4328 34.1054
5877 1 10.1399 15.5846 35.8874
6204 1 24.0501 24.924 32.0013
3969 1 26.0069 24.8911 33.5516
453 1 25.5579 27.0388 32.7278
4919 1 28.0651 25.9353 35.5406
7799 1 28.3449 24.3113 33.1819
7083 1 27.8852 26.8373 32.5489
5324 1 30.0723 26.0651 33.8031
214 1 3.643 14.1292 35.216
5313 1 31.9558 26.066 31.8214
1077 1 11.7436 12.8863 35.3499
6753 1 33.8879 27.9292 31.4716
537 1 32.5769 24.6499 33.8723
1550 1 35.7827 26.6174 31.733
5632 1 33.6583 26.9544 33.3033
6365 1 35.8487 26.1556 34.9483
3804 1 33.915 19.4627 34.7475
6839 1 36.2543 30.8539 32.4086
7238 1 1.04989 31.186 34.5248
7875 1 2.71966 31.4889 32.859
6519 1 3.48081 31.6881 35.1506
3237 1 5.87045 28.315 34.1809
1230 1 5.06049 30.439 33.1401
7092 1 4.32218 31.1734 30.8022
1394 1 3.86441 29.1773 34.9633
4680 1 6.59059 31.9833 33.4827
7959 1 1.88366 36.1781 34.7704
4842 1 7.74545 29.9332 34.8242
2359 1 8.10263 32.1453 35.251
284 1 7.60437 30.0206 32.4678
285 1 10.0156 30.9309 32.5436
684 1 11.7081 29.3824 32.6654
5396 1 13.7528 28.5301 33.4055
4119 1 13.6002 30.4335 34.912
3674 1 16.0085 28.779 32.6733
3079 1 13.7849 30.9552 32.4952
1724 1 11.9303 32.6317 33.3125
5644 1 17.6815 29.3167 30.9601
2537 1 15.8163 31.1501 31.0757
4677 1 18.9947 28.3954 33.2134
5900 1 15.7934 31.1179 33.9435
4044 1 17.8491 29.3876 35.0081
3393 1 18.9713 32.047 34.786
875 1 22.4111 30.6311 31.0445
4674 1 19.8228 30.5071 31.1443
1405 1 23.9788 28.9552 31.4889
1330 1 20.5179 29.6727 34.2936
6455 1 20.7657 31.4335 32.8446
3748 1 22.7205 30.3208 33.5197
3273 1 24.5253 28.6411 34.4475
6270 1 24.863 31.0046 33.9187
4681 1 26.018 29.3476 32.6082
7260 1 26.3591 35.9501 32.896
7077 1 26.8418 27.8498 34.6262
4510 1 25.1172 30.9359 30.8497
1151 1 30.3983 30.5131 30.6316
3185 1 26.912 31.7272 32.0522
2453 1 30.0416 27.9221 31.0731
3311 1 28.7885 29.2981 32.437
6989 1 31.5327 27.8994 33.4209
5471 1 29.0342 31.773 32.7068
6290 1 32.2769 29.245 35.0537
754 1 34.2937 32.4632 32.8564
3954 1 34.1533 30.4466 31.4353
5717 1 33.5334 30.5693 33.5256
594 1 32.1511 29.143 31.583
5716 1 35.8013 -0.197466 30.8516
5594 1 1.04422 34.9901 30.7489
5645 1 0.0128429 35.3364 33.5223
7168 1 30.0793 34.2336 32.5478
1585 1 -0.516552 33.1596 34.5219
3027 1 35.7122 32.8917 30.829
1092 1 0.577644 33.3481 32.5059
5075 1 2.29276 35.0163 32.7434
2126 1 2.18915 33.4869 34.5876
6047 1 5.50351 33.1176 34.8556
452 1 4.53022 32.9253 32.7142
6442 1 4.66611 34.4626 30.9409
6371 1 4.48561 35.202 34.651
5016 1 9.59952 35.649 35.3558
840 1 8.67327 32.9811 32.7549
6514 1 7.72648 34.2378 34.7737
39 1 10.0657 33.408 34.8386
304 1 10.6523 34.5376 32.7353
5586 1 10.2988 -0.462827 31.055
1590 1 6.40183 34.5658 32.6186
776 1 11.0051 0.149926 33.2839
2519 1 11.9969 34.8484 34.7044
6001 1 13.8079 -0.193759 35.0916
3475 1 13.5217 34.8577 33.0345
2601 1 14.2373 32.8087 33.5128
2696 1 18.2446 31.8314 30.8982
6781 1 15.2209 34.6336 34.7232
2939 1 16.7758 32.8155 32.5729
2350 1 17.7238 35.1503 33.1276
6678 1 17.1615 33.3555 34.6703
6435 1 19.9792 34.9676 30.9557
3823 1 24.4776 34.2307 33.1424
6381 1 22.7739 32.7224 34.4217
4922 1 19.1602 33.1939 32.8951
1962 1 21.4503 34.2288 32.9713
4831 1 23.4764 32.4239 31.9672
6138 1 22.1143 25.7317 34.9914
372 1 22.5381 10.9619 34.6486
7576 1 26.3219 33.0726 33.8987
5638 1 27.8525 33.9565 32.0823
5710 1 26.4817 34.9391 34.9873
5241 1 7.97722 13.9634 35.1747
3413 1 34.4699 10.5805 35.1452
7639 1 0.802712 6.68852 35.4136
6596 1 32.786 1.95011 35.8286
3904 1 13.9529 10.6703 35.4933
6134 1 32.0411 26.6252 35.4273
3793 1 23.2899 19.596 35.1299
2923 1 22.3837 28.2493 35.3601
3241 1 17.5043 23.8944 35.3691
5163 1 25.7227 18.8867 35.757
5961 1 32.3029 12.7143 35.4921
5803 1 35.0755 12.8426 35.2347
2366 1 34.9575 -0.397654 35.211
1398 1 13.6331 27.2544 35.6193
6032 1 3.11548 19.8996 35.6291
3818 1 5.0498 23.9797 35.1142
518 1 24.9688 12.3661 35.4212
6299 1 9.48543 4.58186 35.9023
7668 1 2.05461 1.69672 38.7618
7164 1 0.592858 2.65062 36.3668
6922 1 3.66958 3.54229 39.6382
833 1 2.2985 0.892921 36.5984
7335 1 -0.544681 2.62375 38.6967
4137 1 35.6803 1.64554 40.9615
7957 1 4.3879 0.899055 38.1291
1227 1 7.08588 -0.116701 38.7605
4196 1 5.92313 1.69589 39.6303
5087 1 6.10015 2.39496 37.1484
294 1 10.3369 1.74838 36.9687
1792 1 10.4698 3.23324 39.4394
7484 1 8.34587 1.89634 38.2327
3154 1 9.47131 -0.519165 38.223
1959 1 7.8335 3.96668 37.2742
3238 1 11.9319 3.38234 35.96
6205 1 8.28638 0.521774 36.401
1726 1 8.18881 34.9844 39.6908
6688 1 13.9238 0.609894 39.2702
4049 1 12.1575 1.848 38.4476
204 1 13.8996 1.23958 36.7987
6388 1 15.0111 2.82272 38.975
695 1 33.8294 -0.445181 53.9386
4050 1 11.3574 0.656195 40.1234
7417 1 16.9932 4.30444 36.6718
3321 1 15.9534 1.47987 37.4132
3739 1 18.4228 2.70103 37.4456
5037 1 18.332 0.263104 38.2359
6918 1 17.0563 4.05151 39.0209
220 1 17.1382 35.6765 36.3048
6620 1 21.5287 1.00595 42.0676
6850 1 20.3585 1.70254 38.2404
2763 1 22.2894 3.01054 39.0073
4365 1 22.2434 0.54044 39.3079
6534 1 23.9924 -0.424622 36.9054
2447 1 7.38319 15.9995 35.7921
6604 1 24.6202 1.38496 38.8942
4368 1 26.8646 1.15841 38.2422
6200 1 25.2539 1.17932 35.8555
7321 1 26.2536 36.0852 37.2004
5981 1 27.3409 2.86528 36.1044
4205 1 24.8604 35.802 40.217
1329 1 29.7116 2.54624 37.3742
4442 1 32.1734 1.63253 37.9887
4782 1 28.331 0.499478 36.6108
7964 1 31.0911 3.75788 35.5695
6071 1 29.8995 0.359335 38.3636
3983 1 33.1221 34.3696 49.6208
6602 1 31.4069 34.7777 38.0595
6935 1 34.4192 3.59563 36.545
5796 1 32.911 -0.624731 36.317
6616 1 34.7524 1.16374 37.1211
616 1 24.8214 33.3883 35.7284
2540 1 33.1838 -0.457657 38.7896
1587 1 34.5518 32.9948 50.6824
1956 1 1.47718 3.90862 38.644
373 1 0.150305 5.62693 39.2839
1844 1 2.52429 6.36458 37.8516
7903 1 7.19488 11.6641 35.9513
3404 1 2.31026 4.60116 35.6164
6128 1 35.9014 7.42564 37.4756
2541 1 0.281642 34.4676 50.4602
2930 1 6.26833 3.95628 39.2487
6609 1 3.65972 2.9971 36.9633
5899 1 3.97118 5.80704 39.4768
7339 1 4.92151 5.2098 37.0802
1561 1 -0.0720584 4.70463 36.7973
1253 1 6.56608 6.10634 38.4873
1085 1 8.34148 6.55776 36.8073
5000 1 8.72312 5.233 39.2689
3951 1 10.4981 5.88445 37.4827
3166 1 10.6252 6.48149 40.1841
4299 1 9.49744 8.20943 38.0345
6370 1 12.5136 4.32839 38.2627
6057 1 13.9333 5.66694 37.3181
5002 1 14.1437 8.14739 36.2236
998 1 12.4851 7.40692 38.0256
4200 1 13.2409 5.952 39.5908
4047 1 14.9528 7.5297 38.4907
2759 1 14.0295 8.8797 39.9119
6861 1 18.359 6.74486 36.3214
7811 1 19.4693 3.5522 39.517
3631 1 19.471 5.38193 37.7237
7268 1 20.3707 7.12808 38.8989
2698 1 17.6712 6.22652 39.617
5955 1 16.1268 6.32205 37.2312
7904 1 21.8066 5.29097 39.2783
1099 1 21.4733 6.55918 37.228
7878 1 22.8932 2.13928 36.5619
4990 1 22.601 4.68528 37.0739
5980 1 20.4531 3.50101 36.5744
6064 1 22.7669 7.24557 39.1082
1731 1 24.167 5.1743 39.4376
6875 1 24.9074 3.625 37.471
5005 1 26.9912 6.2375 37.4314
5425 1 27.6124 7.58542 39.7452
3554 1 27.3781 3.75372 38.5482
7079 1 26.4934 5.60777 39.6686
696 1 35.1161 31.0213 49.5464
1819 1 29.3709 7.38595 37.5423
5155 1 32.454 5.6924 36.2942
5093 1 28.7801 4.73739 37.1253
1882 1 30.1744 3.37128 39.4455
4275 1 31.1485 5.55083 38.6027
7324 1 28.7678 5.64132 39.2748
2150 1 30.1529 34.4209 52.7014
1549 1 33.1057 5.06984 40.102
4924 1 33.6315 8.15334 35.8552
7919 1 32.3996 3.87141 38.1252
3020 1 32.9202 6.95573 38.3192
274 1 34.5618 5.25337 38.1223
994 1 35.1977 7.04979 39.7051
615 1 3.0451 7.91075 39.7242
4685 1 1.18012 8.2879 37.0602
1341 1 -0.818949 11.9047 37.3808
6274 1 29.0378 22.5489 36.616
429 1 35.824 18.2342 36.2253
7477 1 1.27054 10.8054 36.8853
7589 1 -0.292409 9.77444 38.4773
7559 1 4.72165 7.61786 37.6809
1563 1 3.01861 9.71673 38.0406
5273 1 6.28568 10.6317 38.4793
522 1 7.21162 8.53652 37.9167
6451 1 5.96346 9.45718 36.0623
2224 1 3.36534 8.57505 35.6602
1728 1 4.41662 10.0814 40.1935
1823 1 8.86296 10.0437 36.7984
6766 1 11.1211 7.97247 35.446
4281 1 9.89809 10.9754 38.5213
2363 1 8.12041 9.6036 39.6919
4358 1 11.6407 9.53449 39.4159
1903 1 13.5416 10.0828 37.5054
6871 1 12.5826 7.75954 41.4563
1643 1 14.9481 11.4279 39.0133
5231 1 29.3807 13.3455 35.4387
5332 1 12.7794 10.4436 41.7477
2749 1 17.6674 8.33065 38.0042
2911 1 18.0548 10.4731 36.0818
5158 1 18.8199 10.4292 38.5006
4284 1 15.6567 9.65534 37.8485
6194 1 19.7756 8.79237 36.8676
1809 1 23.7193 8.6967 37.2412
1406 1 21.9428 10.7757 37.0778
1655 1 19.6439 12.194 41.3705
5805 1 21.2444 9.5297 39.0243
3405 1 23.2737 10.6992 39.1815
7812 1 29.1621 12.9824 37.6125
6790 1 30.4296 31.9329 52.6642
6594 1 27.1901 9.0071 37.1003
7183 1 25.9123 10.7454 38.1171
6546 1 24.4999 6.15878 37.2665
2765 1 25.2568 7.77616 38.9941
1198 1 28.1984 10.9865 38.319
7155 1 27.0998 32.0644 37.0748
7001 1 18.2549 19.3886 36.4949
4190 1 31.4609 7.95656 36.7539
6041 1 30.2553 10.727 37.2959
2457 1 29.8019 7.29862 40.8205
2699 1 29.4298 9.31499 39.2107
3428 1 31.3677 8.22062 39.3226
6061 1 32.1286 10.5555 38.915
514 1 34.2295 9.47536 37.8348
3807 1 6.30251 6.89159 35.6819
4357 1 32.5624 10.1523 36.2087
2940 1 29.3618 9.11648 35.7168
7313 1 0.726116 13.5892 36.4217
1408 1 2.225 14.0715 39.7243
4621 1 3.59654 11.9011 39.402
2300 1 28.4752 10.0345 53.7261
5903 1 1.04517 11.976 39.0361
125 1 -0.21941 14.3256 38.493
4303 1 4.72061 11.3874 36.9691
1966 1 3.48148 13.3275 37.5597
1248 1 6.14719 13.4326 37.4
6614 1 8.14219 12.5222 38.0248
4469 1 25.6293 21.123 53.423
3881 1 28.4441 15.726 35.7435
3718 1 10.5565 13.2342 37.6139
437 1 8.51972 14.695 37.3977
2999 1 9.54271 12.6493 35.773
3559 1 12.2002 12.3081 39.0897
841 1 13.52 12.5361 36.9401
2109 1 14.7263 14.4704 36.8808
5502 1 14.2911 12.1208 41.621
1003 1 14.7871 13.6849 39.724
4195 1 15.4734 15.8801 40.6923
3070 1 12.6215 15.2538 37.019
3838 1 13.4261 16.4631 53.2188
1961 1 17.1125 11.6918 39.7922
7161 1 10.2683 19.6867 36.2838
3714 1 16.5895 14.3927 38.1098
7798 1 5.16442 15.6177 36.6505
7250 1 17.7233 15.7176 39.8542
6842 1 18.7449 13.2779 39.5547
6195 1 18.0112 17.095 37.9504
5326 1 15.1891 14.2288 42.6602
2609 1 20.5797 12.0062 38.9781
3669 1 19.1106 15.1817 37.4051
1645 1 21.7529 13.2514 37.1933
5076 1 22.8817 15.5574 37.9324
2608 1 20.7655 14.5606 38.8371
4375 1 24.2198 12.0581 37.6054
6293 1 24.9997 14.8708 37.7561
2207 1 26.7737 13.1519 37.6799
3795 1 26.8021 14.6425 39.6925
2440 1 16.0422 11.4882 36.5812
3660 1 30.3146 15.1105 38.4555
7471 1 31.5799 12.8424 38.4479
1729 1 28.8894 26.7588 37.5288
3811 1 32.2588 15.1073 39.3817
4356 1 32.4559 14.6639 36.8693
2456 1 35.3921 23.678 35.8676
3327 1 32.5705 12.3147 40.6772
3583 1 34.6819 11.6272 39.4738
4288 1 33.675 11.7667 37.3144
1804 1 34.2212 13.6934 38.5121
6123 1 34.9821 15.2726 36.6823
5181 1 -0.5519 9.32893 35.6582
4450 1 2.39017 16.0411 38.1721
5268 1 3.75289 17.5735 36.6558
7084 1 1.55726 18.1599 37.097
1086 1 2.38759 18.0067 39.5421
5816 1 25.9045 30.0694 35.8955
7716 1 4.89063 17.4988 39.2529
6033 1 6.04837 18.0721 36.6069
4372 1 4.85645 15.063 39.0739
3591 1 35.2854 33.9925 54.3322
2362 1 18.7904 13.0789 37.2176
3649 1 11.7764 17.6978 36.9726
3643 1 10.57 15.534 38.2356
442 1 8.92009 17.3462 37.2912
2287 1 11.5713 19.5946 38.5154
5161 1 28.1894 18.0603 35.9207
2690 1 6.8521 16.5204 38.2083
4757 1 14.7705 16.4764 38.4791
5008 1 12.7798 20.9238 36.5953
3569 1 12.9687 17.6956 39.4232
5166 1 16.1373 18.5425 38.003
1172 1 13.8712 19.6853 38.5483
1083 1 16.39 16.2045 36.4862
5317 1 18.2798 18.9152 40.7326
5997 1 17.8462 20.35 38.7642
2044 1 16.6047 17.5926 39.8781
5244 1 18.9339 17.4273 35.5265
5191 1 21.1253 16.9265 38.0335
3113 1 20.0807 16.5805 39.9886
3561 1 19.7764 18.5816 38.8952
1171 1 22.1558 19.1344 38.7401
5081 1 23.3093 18.006 36.943
3269 1 24.2855 18.2436 38.9244
2834 1 24.9946 16.2885 39.8786
4690 1 26.081 17.3676 37.4533
1675 1 26.9028 17.8704 39.8089
2864 1 33.3407 10.4568 53.6743
2762 1 27.9318 15.6846 38.2285
4683 1 33.4477 16.7041 37.8636
5099 1 30.3826 16.2848 36.4341
5009 1 30.8421 18.7014 36.0953
4605 1 21.1931 15.6499 35.9597
451 1 28.9289 17.8872 38.3055
5490 1 31.4769 17.2043 38.3129
3163 1 10.8121 26.8898 35.891
780 1 34.9165 15.2614 40.164
5964 1 36.4414 16.9249 38.3568
5318 1 34.9372 18.5038 39.0224
4913 1 32.7264 19.0124 36.9937
7080 1 0.466579 22.293 37.5539
2269 1 0.161098 21.9212 39.6985
2034 1 2.73474 22.9258 38.6878
1078 1 2.409 20.543 39.8343
364 1 2.24532 21.1312 37.2968
1243 1 0.464744 19.8089 38.1906
5986 1 11.0661 10.4833 36.1414
6945 1 4.19852 22.7717 36.9783
839 1 3.781 19.3963 37.9724
1004 1 6.48962 19.256 38.8708
5878 1 0.592972 16.0993 36.3342
6607 1 5.47608 21.9507 39.0114
3966 1 6.1586 23.9059 38.3453
7803 1 5.2886 20.6361 36.6794
595 1 9.21817 19.4084 38.8622
4037 1 9.35633 22.9236 41.0038
4360 1 10.5203 21.861 37.0798
4767 1 9.01669 23.7826 37.7591
2768 1 7.93998 21.8165 38.4037
6522 1 10.2761 21.4441 39.6286
540 1 12.7159 21.8652 39.1712
155 1 15.3294 20.241 36.6238
287 1 14.962 22.1201 37.7342
6447 1 11.1858 24.1926 39.336
4848 1 14.2761 24.7574 37.9282
2153 1 12.6716 23.1883 37.0179
3095 1 15.6804 20.9642 39.608
836 1 17.265 21.5321 36.9948
1735 1 16.7956 24.2164 37.4261
5654 1 19.7579 21.9274 38.8374
2137 1 17.1657 22.6961 39.0144
6295 1 19.0065 23.5158 36.9609
2446 1 20.0784 21.1639 36.8817
1813 1 22.5306 21.4543 37.3553
2840 1 22.0808 23.2318 35.5879
1960 1 24.1125 20.5672 39.9563
5514 1 22.1978 21.6879 39.5764
3004 1 23.9132 23.1959 38.8749
4289 1 24.518 23.4765 36.1169
5327 1 24.4074 20.2951 37.562
866 1 25.6745 19.3886 41.3533
3558 1 26.1617 23.1876 38.2351
1328 1 26.2582 21.3461 39.556
1918 1 20.9217 18.8501 36.515
7808 1 26.7371 19.8616 38.1071
2942 1 25.8433 21.5933 36.6617
3817 1 30.6739 20.2136 38.1918
6030 1 28.8174 21.5414 38.9735
4847 1 30.1234 23.3236 39.1043
7179 1 28.9943 20.044 36.6443
7331 1 33.9466 21.5863 35.3549
1168 1 34.9421 20.2763 37.227
2927 1 32.8264 21.2698 37.7052
279 1 31.2075 22.8385 36.9738
2391 1 34.9268 22.7478 37.9478
4283 1 34.9755 20.5578 39.8359
1805 1 31.9119 24.9827 40.4254
3574 1 3.06869 27.8175 37.0461
1040 1 32.9318 33.5796 53.4507
7892 1 2.91087 24.5373 35.9325
7008 1 0.57318 24.9639 36.757
7423 1 0.627703 27.6181 37.7335
441 1 2.47749 25.4422 38.3788
2475 1 4.71087 25.7201 37.3966
3309 1 3.79887 27.5907 39.1966
2278 1 6.43305 26.4536 39.428
7178 1 4.755 24.7581 40.2878
3896 1 5.75146 28.8634 39.5731
194 1 0.445346 20.523 36.0061
5722 1 10.8932 24.3697 36.4477
1318 1 7.57194 25.6367 37.6072
1490 1 9.81631 26.0386 38.0704
6777 1 7.5584 24.4624 39.8532
1031 1 9.97241 29.0613 37.2798
1883 1 7.8456 28.0754 38.4643
3757 1 11.3139 27.2264 39.5531
2283 1 8.51833 27.7837 35.9812
1002 1 11.3244 -0.189055 36.7075
3194 1 15.5028 25.8577 36.1906
6798 1 12.3515 25.8366 38.0697
216 1 13.6837 26.1038 39.9806
3962 1 14.7827 27.0656 37.8978
6951 1 18.3332 26.0475 40.2137
2205 1 20.3787 26.0577 37.5513
6768 1 18.0474 26.1952 37.6465
3805 1 16.5903 27.6945 39.4083
3485 1 21.3456 23.6647 38.283
4513 1 22.3782 25.9587 39.0983
2290 1 23.3144 27.7664 37.3674
6860 1 23.0013 25.271 36.9265
4703 1 19.2684 24.2272 39.4497
3898 1 24.8501 25.6698 39.618
4833 1 27.2164 28.428 37.1773
5732 1 27.0493 23.929 36.0704
4694 1 20.2515 11.8956 35.8463
4763 1 26.0536 26.1457 37.5837
134 1 25.4574 29.0422 38.1788
5407 1 27.2783 26.1581 39.9062
1580 1 8.59172 1.63291 53.1687
7642 1 28.2138 24.7439 38.0027
4394 1 28.2117 23.6378 40.3664
848 1 28.3303 28.3715 39.1237
2291 1 29.9735 33.3402 50.4165
6035 1 30.8053 25.4513 37.9367
6520 1 30.9056 28.3844 38.9364
5261 1 29.6482 26.0302 39.7446
6437 1 32.6923 24.5137 36.2044
601 1 34.2913 25.9869 36.6829
6118 1 33.3313 24.2268 38.4937
5812 1 33.2232 27.9415 37.4464
4063 1 35.1674 25.4051 40.2016
860 1 32.6867 26.4732 38.7581
3676 1 33.915 23.4581 40.6937
4935 1 1.61986 29.0055 39.4955
193 1 34.9585 27.1424 38.581
2118 1 -0.123431 30.2977 36.9646
5405 1 2.51443 30.1684 36.7751
6354 1 1.44167 32.3531 36.5336
5176 1 36.1855 28.4932 40.04
2355 1 2.08321 31.3527 38.8726
2357 1 4.45283 30.2611 38.3187
1474 1 3.93586 32.5563 37.4362
844 1 6.17377 31.3973 39.1501
1009 1 6.9368 32.6854 36.9958
1723 1 4.49469 30.4855 40.6726
2133 1 3.94703 32.6989 39.8828
6513 1 9.59955 29.8983 39.0488
2441 1 11.5488 30.6615 36.719
4036 1 7.56927 30.1998 37.2284
2517 1 11.9608 29.4921 39.935
4771 1 11.1239 31.5701 39.2305
3503 1 8.79568 15.5413 53.74
2454 1 14.1917 17.931 36.7234
4603 1 27.9305 11.6276 36.0522
7169 1 12.8038 28.4173 37.5207
4760 1 14.9924 29.8233 36.777
7097 1 15.4063 30.3764 40.1775
680 1 13.638 30.6312 38.5827
3476 1 12.0561 32.6253 35.5905
3000 1 19.0013 30.0239 36.8896
5559 1 17.2241 29.8588 38.6094
2438 1 17.0384 28.3878 36.9236
682 1 18.8508 28.1401 38.5768
526 1 19.4462 30.1981 39.7101
2689 1 17.5276 31.1856 41.6231
2755 1 21.1537 31.2566 35.642
4999 1 23.0268 30.149 38.2141
454 1 21.2263 31.3756 39.0411
7429 1 21.1629 29.1913 37.6339
2444 1 22.0935 28.3021 39.5251
5584 1 30.9176 18.9387 53.5606
3319 1 23.2716 28.74 53.3377
545 1 17.3536 34.4325 50.6656
6698 1 25.0618 30.9498 39.964
3084 1 27.3487 30.4895 38.8646
5659 1 25.0584 31.4972 37.5707
2526 1 23.1885 33.0605 39.5338
4535 1 23.5087 30.4522 35.9776
2371 1 29.6601 30.6487 39.1506
4997 1 28.63 30.3955 36.8216
3316 1 30.7311 28.0476 36.515
4915 1 31.1486 28.0704 41.0506
7244 1 31.3631 30.5008 37.1054
5422 1 32.5422 29.8403 39.1868
2271 1 5.68226 30.6327 35.5597
7876 1 35.6794 28.0501 36.1308
7634 1 33.8272 29.9132 36.6656
6364 1 33.6493 28.2008 40.1724
767 1 35.1833 30.3639 38.7795
151 1 28.3755 36.3487 52.4864
3980 1 6.44652 30.2123 53.2859
6462 1 1.93136 -0.765679 38.8566
1970 1 0.066794 34.6948 36.8578
6997 1 -0.117979 34.6584 39.4245
5996 1 36.2958 0.225567 38.8334
6441 1 3.02991 34.6106 36.7899
6291 1 1.94015 33.654 38.8387
1274 1 0.117786 0.264123 36.4449
3958 1 5.02926 -0.0372747 36.3789
7160 1 5.60108 34.6738 37.2376
2128 1 4.21211 35.1628 39.1406
7880 1 6.31836 33.7399 39.2307
610 1 8.60506 32.4462 39.1254
7410 1 10.8846 34.3566 36.7899
2525 1 9.60834 32.1544 36.9799
2047 1 8.50031 34.371 37.0915
845 1 10.3506 34.0844 39.0684
6605 1 12.4801 35.3533 38.6554
3505 1 15.1662 35.9108 37.3655
3170 1 12.7337 33.121 38.5717
1157 1 13.4421 34.6641 36.7906
1576 1 14.9567 32.4686 38.8266
6050 1 14.1381 34.4207 39.8379
3344 1 32.2706 36.0665 51.9986
999 1 18.8629 34.7821 37.4972
943 1 16.5004 33.7044 36.839
5718 1 17.5224 34.7804 39.9807
3161 1 19.4365 32.8857 39.8983
2064 1 17.2467 32.4896 38.7836
849 1 16.1751 32.9484 41.0207
6276 1 19.7264 0.785686 40.5373
464 1 3.67691 15.1338 53.2103
6362 1 27.9617 33.6133 51.8907
786 1 20.5559 33.738 38.2301
3986 1 18.9419 32.3523 37.1422
4059 1 20.7312 36.1182 37.2699
4529 1 22.7373 35.28 38.3505
954 1 35.8347 23.7754 52.816
5090 1 22.8508 32.8408 36.9025
4837 1 25.5966 33.181 40.4335
1746 1 27.6437 33.1055 39.0397
2935 1 25.365 33.8876 38.233
7327 1 29.7148 35.2255 36.4159
1401 1 29.5863 32.5722 37.399
4111 1 27.8032 36.0187 38.8591
4927 1 27.7308 34.3895 37.2066
5790 1 29.6588 34.5395 39.9378
6215 1 31.1253 32.8111 39.538
778 1 34.9561 32.2936 36.774
7898 1 33.3193 32.0316 38.2161
5729 1 31.7478 32.9279 36.6448
2298 1 34.118 34.4995 37.7216
6711 1 35.9886 32.7746 38.4898
6301 1 19.8623 27.9717 36.0541
6476 1 1.36838 0.41472 40.8713
5403 1 1.35615 3.00944 40.8655
1904 1 3.32134 3.17456 42.1278
6625 1 1.48598 1.79499 43.0001
7975 1 5.73844 -0.519169 40.8235
3357 1 4.14606 1.80305 43.7093
4048 1 3.65981 0.982641 40.6409
121 1 6.54945 0.896989 44.1061
4706 1 5.7959 3.40708 41.5012
7917 1 6.45197 1.37608 42.0722
544 1 8.50612 0.694281 40.5445
5491 1 8.02943 2.68294 42.8891
3566 1 8.14651 2.97702 40.4008
2536 1 9.76532 1.55789 44.4085
199 1 10.76 2.35126 41.9333
4949 1 11.1306 0.0317368 43.2275
6457 1 9.67422 4.59824 41.4952
5159 1 13.0702 1.46764 41.6259
458 1 14.5019 2.60512 42.869
6055 1 12.4414 1.78508 44.0055
1555 1 12.3312 3.78692 42.8223
2353 1 16.1825 -0.229877 39.4476
1995 1 11.4852 2.86083 46.2986
1247 1 15.608 1.47723 41.1457
4232 1 17.4723 1.72433 39.8596
210 1 18.0217 2.29331 43.7049
7978 1 17.6615 0.301813 41.9247
3981 1 19.7271 36.2101 43.298
7565 1 16.1829 0.912587 43.4391
5646 1 17.2034 35.5257 44.3072
4220 1 20.7009 1.16946 44.6056
5797 1 23.0065 -0.43674 43.2329
5276 1 19.5329 2.48531 41.725
5801 1 22.8555 2.54491 43.2799
5723 1 25.375 2.12032 42.5849
4449 1 23.5052 3.52771 41.1299
2680 1 25.7297 2.97935 40.3508
4141 1 26.4416 0.941692 40.4432
5329 1 27.5714 1.28357 42.879
3087 1 23.6745 0.933096 41.3015
4387 1 27.8628 3.88636 41.0117
5715 1 29.4518 2.52205 42.2486
7420 1 30.9509 3.57893 43.7293
6787 1 28.4571 1.85717 40.0443
7176 1 31.6012 1.13914 40.1483
2843 1 31.8908 3.37228 41.2681
5728 1 30.8968 0.520082 42.4
6146 1 33.9131 2.49704 39.6699
7659 1 35.7742 -0.270258 42.1733
5243 1 33.5105 0.422754 41.3922
3677 1 32.6987 1.98999 42.9437
6550 1 36.0655 3.95358 40.5054
3495 1 35.1304 2.01753 43.6251
949 1 34.0576 -0.0683512 43.8706
7564 1 2.1207 5.35053 40.6406
5095 1 2.08503 7.51264 41.7156
6294 1 -0.189 6.29769 41.507
4453 1 1.81645 4.41261 43.1004
443 1 -0.489183 4.28777 42.9978
7320 1 1.44437 7.00354 43.9439
3251 1 5.69884 7.62982 40.4084
5749 1 3.95754 7.90542 42.8214
4709 1 6.03605 6.31025 43.3659
359 1 4.21638 5.87886 41.884
3421 1 5.22374 4.09616 43.639
365 1 8.6109 7.33438 41.9874
6859 1 7.78218 4.986 43.4082
1395 1 7.93108 7.211 39.9284
7910 1 6.45603 5.56929 41.2049
4143 1 10.0897 3.71476 43.8467
2075 1 9.84498 8.64319 40.7883
2756 1 10.6505 6.22867 42.9104
4359 1 15.5112 5.26293 39.6347
4033 1 12.7021 3.25756 40.3089
6843 1 12.3139 5.48026 41.6119
4688 1 14.6044 4.96285 42.3111
3249 1 11.7514 4.8028 45.1673
2850 1 13.8869 4.05339 44.9301
628 1 14.8295 7.12081 41.3719
933 1 16.7247 3.6137 41.5084
7962 1 19.8687 5.67839 40.7175
1180 1 18.8289 4.59099 42.9137
3644 1 16.2487 4.41104 43.787
7496 1 17.1019 6.31466 42.3171
3489 1 17.5288 6.62671 44.8461
6378 1 21.0153 5.69825 42.9504
3164 1 21.4768 3.87448 41.6012
3019 1 22.9193 6.28275 41.5518
2679 1 21.1142 7.67506 41.246
6687 1 23.6604 4.88608 43.4624
6872 1 24.3789 3.18848 44.8794
4277 1 25.4111 4.81825 41.8178
4302 1 25.5293 7.17037 41.2062
1241 1 27.936 7.39874 44.7003
1822 1 25.6727 6.46404 43.3475
551 1 27.236 3.44177 43.1832
7882 1 29.9517 4.82217 41.417
6601 1 27.7258 6.04858 41.9278
7163 1 29.2775 4.97044 43.9364
118 1 29.9883 7.54285 45.6017
1154 1 29.4214 7.14405 42.9809
128 1 31.3335 5.70374 44.9917
141 1 34.2728 3.5297 42.1997
468 1 34.3126 6.08191 41.8945
3098 1 35.7507 7.57249 43.3974
3322 1 33.1866 7.24133 44.5024
6443 1 33.7057 4.95122 43.979
7655 1 31.6196 5.62267 42.6259
7913 1 1.91229 9.84954 40.0924
7549 1 0.648739 7.99077 39.5331
6515 1 1.02742 9.16786 43.0012
5571 1 2.81583 11.6657 43.9587
6230 1 0.0930051 10.9557 41.4735
7489 1 35.219 9.89964 43.1452
6846 1 3.17035 9.89428 41.9855
3121 1 2.77409 8.99674 44.7554
7793 1 6.62726 8.90693 41.8308
1886 1 6.11852 10.6617 43.8348
1885 1 6.25656 11.1401 40.9819
7402 1 8.86678 9.37575 42.8443
2043 1 8.28647 11.7853 44.7498
2771 1 8.10496 11.3636 42.4627
3575 1 11.0966 8.80052 42.8836
1321 1 10.0154 9.56942 44.9236
688 1 7.83482 7.67498 44.207
6778 1 14.8639 7.40696 44.1742
3499 1 12.7437 6.46046 43.6495
4 1 13.9114 8.97373 42.8098
6533 1 14.832 9.97209 44.9195
3483 1 13.0321 11.399 43.9042
225 1 15.5292 10.1975 41.3925
2534 1 19.7545 9.6096 42.332
1509 1 18.7799 8.15264 40.3905
5157 1 16.8561 8.63249 43.1526
4598 1 16.3724 8.11443 40.2417
2603 1 16.8519 8.77461 45.5338
768 1 17.7241 10.136 41.1384
5819 1 18.4258 10.8075 43.7828
4294 1 21.8155 10.9093 41.0799
4599 1 23.2804 7.37504 44.0981
2781 1 22.5827 12.9611 39.7515
5168 1 19.1045 7.25913 42.9862
6124 1 21.2967 8.34038 43.4532
3900 1 20.9167 10.4155 44.773
1166 1 23.171 8.91424 40.9056
6198 1 25.7204 9.73147 40.3568
288 1 26.7198 10.8583 42.3496
4454 1 23.0351 10.0248 43.5401
305 1 24.2795 11.5183 41.0772
5164 1 25.3418 8.70513 43.1307
6521 1 27.4999 8.44963 42.5163
4855 1 31.1372 9.91227 41.1253
3352 1 29.3602 9.77779 43.7132
6689 1 31.139 8.36697 42.8526
6054 1 28.8838 9.52182 41.342
5500 1 30.0834 12.1023 41.981
2229 1 30.0557 11.4164 39.7525
6363 1 32.3109 7.37106 46.6089
6439 1 35.9517 8.90361 40.8899
5744 1 32.6764 7.502 41.1736
361 1 33.1786 8.8747 42.8952
536 1 34.7644 10.5569 45.5339
445 1 33.6703 9.67286 40.5037
4604 1 0.148702 10.661 44.3853
132 1 3.17098 14.1751 43.1862
531 1 2.12532 12.0859 41.5069
1511 1 0.400036 12.8851 43.0617
283 1 3.17791 16.6096 43.1773
289 1 1.45219 14.8387 42.0197
1968 1 5.70016 12.798 39.6836
7656 1 4.46242 14.4244 41.2917
5758 1 4.43547 12.4623 42.0483
917 1 8.18802 12.2499 40.1799
6036 1 6.63693 13.2031 42.282
2925 1 7.29131 14.5722 39.8977
4207 1 9.05452 13.5164 42.3879
7025 1 9.97269 11.3206 41.0143
2149 1 9.98792 13.7152 39.814
1404 1 10.8791 13.9565 43.9371
4790 1 7.67921 15.5545 42.2197
6126 1 10.3963 11.3551 43.3105
3398 1 12.2549 15.0256 39.5552
1423 1 13.24 13.4562 43.552
2321 1 11.8375 12.602 41.6509
1658 1 15.8824 14.3468 44.7344
5108 1 12.3643 14.6843 41.7562
3963 1 15.9381 11.1443 43.3978
448 1 16.8881 13.6558 40.8441
4693 1 17.548 12.9585 43.0549
4204 1 16.6125 12.1685 45.2817
6920 1 18.8512 13.3841 44.8742
1565 1 19.2712 14.5704 41.519
5725 1 16.9498 15.2655 42.5933
1964 1 20.5961 12.4412 43.6216
6757 1 21.9365 14.9385 41.2681
3182 1 21.5351 14.6241 43.913
2626 1 23.2338 12.0511 45.1298
3999 1 24.3488 14.8472 43.4186
2612 1 25.8992 12.5346 39.7491
7651 1 22.6079 12.7928 42.805
6218 1 26.4686 13.2751 41.9613
7667 1 24.2418 13.8649 41.2987
5247 1 27.8477 11.3169 40.488
6760 1 25.0012 12.0082 43.6705
3671 1 25.2774 13.955 45.1877
2122 1 26.9696 14.4548 43.8509
7021 1 28.7785 13.4333 39.7337
4440 1 28.1904 12.1656 43.5473
6283 1 31.3453 16.0749 42.3412
7670 1 30.7877 14.3929 40.9667
5094 1 28.6519 14.5486 42.2687
7504 1 32.203 16.2615 44.889
7271 1 -0.609891 13.2766 40.676
2219 1 33.084 14.8156 41.8527
4780 1 32.2539 10.9422 43.0662
7887 1 32.2577 13.5081 43.9693
5184 1 33.6614 17.1652 43.0948
5963 1 34.9572 12.506 43.7329
6051 1 34.276 11.5689 41.9765
1080 1 35.6914 14.7935 42.5195
4058 1 34.1491 15.2582 44.2929
7009 1 0.558285 16.0808 40.4074
3264 1 1.21282 15.5657 44.2434
6849 1 2.669 18.847 41.9769
371 1 1.56285 18.5424 44.2283
5409 1 0.982309 17.3813 42.1845
439 1 4.55858 17.5159 45.0456
6207 1 4.53652 19.9222 40.4451
7474 1 3.18227 16.2495 40.7581
7105 1 7.205 18.7835 41.5555
597 1 5.31936 17.8847 42.8375
7833 1 5.20429 15.2911 43.366
3640 1 5.9516 16.3464 40.7942
4538 1 7.14546 17.1907 43.8694
3580 1 10.4483 17.167 39.7635
7644 1 8.14487 16.9807 40.0329
5576 1 9.02025 17.6343 42.4837
5990 1 9.92895 15.4714 41.1253
4053 1 10.5243 19.4466 43.2242
5234 1 11.0382 16.2786 43.4107
2031 1 11.6897 19.8961 40.9611
1153 1 11.5477 17.7229 41.773
354 1 14.4177 19.2374 40.777
3036 1 13.6126 16.6715 42.2027
4795 1 13.6281 18.8532 43.1872
6277 1 15.8987 17.6938 42.0905
4526 1 19.8005 17.986 44.5642
2917 1 15.8176 19.5904 43.8773
6847 1 19.3323 15.2953 43.8504
3556 1 18.5811 16.7552 41.7994
7813 1 17.9964 19.024 43.1443
6925 1 17.5608 16.3513 44.6726
5887 1 21.4986 16.9737 42.5304
2846 1 20.8009 20.1695 40.7455
4617 1 22.3837 17.1383 40.1195
2948 1 22.7596 19.1149 43.5401
5815 1 23.6823 17.0136 43.9246
3666 1 23.3356 19.2334 41.4682
2131 1 23.7714 19.7442 45.3897
362 1 26.1304 16.8849 43.6074
7640 1 24.1712 16.8625 41.9164
3655 1 26.7093 16.114 41.4783
4446 1 27.965 18.4517 44.7942
4467 1 28.8809 18.118 42.0058
3179 1 30.6425 20.3453 41.3268
865 1 28.51 19.5316 39.9585
1238 1 29.0918 16.2122 40.0961
3572 1 30.5836 18.042 40.3578
5481 1 29.849 20.2838 43.7975
955 1 28.4048 16.2794 43.5649
3332 1 30.8819 17.9922 43.6106
7186 1 32.6578 19.4085 39.4656
6761 1 33.0504 16.9462 40.9692
6754 1 35.8192 16.9753 44.0127
4290 1 35.2859 17.062 41.7359
4853 1 36.3065 19.3371 44.6578
2933 1 34.1727 20.3527 43.5186
7795 1 32.4757 18.9925 42.1851
6626 1 34.8325 19.2563 41.8768
7721 1 0.282122 18.9676 40.5629
3636 1 3.81915 22.3971 41.3952
5091 1 1.83036 21.5983 42.1846
2922 1 0.188268 20.1916 42.6768
5248 1 1.95946 20.9741 44.4382
7230 1 3.3444 24.2307 42.8284
2997 1 8.15526 19.9634 43.4904
7185 1 7.17555 20.8701 40.458
1331 1 5.67008 21.0491 42.5059
1088 1 4.88427 21.432 45.5716
2766 1 5.62454 23.0781 43.5969
2851 1 3.27827 22.9204 44.7251
6281 1 9.5574 20.7677 41.4945
5668 1 7.69123 22.1835 42.7118
1415 1 11.5474 22.5453 41.4834
7567 1 10.0277 21.7786 43.4192
6774 1 10.637 23.9961 43.0221
3081 1 16.0759 22.521 41.4698
4788 1 12.638 21.1086 43.2429
928 1 16.1779 20.1332 41.6557
5031 1 13.8244 21.5943 41.1018
5175 1 14.962 22.001 43.4344
1478 1 13.123 23.4634 42.7232
2841 1 13.385 23.8726 40.0048
3257 1 16.4354 23.8045 43.7027
1487 1 18.3454 21.5363 40.7924
4845 1 20.3522 22.525 40.8879
2703 1 17.3351 21.5398 43.4005
129 1 19.7721 22.3136 43.2988
773 1 17.9345 23.9496 41.5969
6052 1 20.4237 19.7569 43.1057
7744 1 22.1614 24.1931 40.4521
4793 1 22.03 21.4744 42.2788
7177 1 24.2877 21.5986 43.2526
2401 1 22.7113 23.8074 42.9458
6236 1 21.7269 21.2255 44.6447
4684 1 25.1043 19.0783 43.6347
1481 1 27.471 19.5402 42.9772
1255 1 27.2201 23.3554 42.3693
2306 1 24.0339 22.7888 41.1181
3735 1 26.1171 21.3733 41.8764
3973 1 25.9165 21.2435 46.8652
7322 1 26.4572 22.0395 44.2207
2874 1 32.131 22.4744 39.7822
529 1 28.2347 21.1509 41.6648
7822 1 31.5891 21.9104 43.3124
6359 1 30.0586 22.7365 41.8569
4611 1 32.1833 23.8423 42.4745
207 1 29.0563 22.4813 44.0195
5806 1 32.9171 22.5591 45.326
1263 1 34.2131 23.1877 43.2953
436 1 33.1302 21.1553 41.3407
1350 1 -0.300942 21.9805 44.3187
6317 1 35.6374 21.8175 41.6936
919 1 35.8398 24.7685 44.0161
1240 1 1.88639 23.8324 41.0868
2392 1 2.09792 28.1985 41.5674
598 1 1.16885 23.4256 43.3263
41 1 2.94858 25.9271 41.0045
7806 1 3.73054 27.27 42.9899
671 1 0.330666 24.2962 38.9734
2909 1 1.3042 26.0768 42.851
6201 1 6.04306 23.2931 41.2822
4615 1 8.35046 24.4679 42.7639
2145 1 5.12971 27.1059 41.2423
3089 1 7.55041 26.2863 41.8255
3738 1 5.73344 28.2492 44.2525
2199 1 5.97412 25.2747 43.034
2949 1 8.7767 28.3295 40.4113
3903 1 9.59785 25.7555 44.8377
7742 1 9.94672 26.8802 42.6765
7006 1 9.56525 25.5362 40.7653
3091 1 11.9567 25.6024 41.5766
6694 1 12.7151 27.6837 41.7692
3486 1 13.9724 25.9468 43.0712
2595 1 15.2032 24.5202 41.7844
2918 1 10.9067 29.0809 42.2416
787 1 13.7029 28.2074 43.7596
135 1 17.1353 26.5663 43.3171
4696 1 16.1504 25.3484 39.3653
3330 1 15.6207 27.1418 41.469
5114 1 19.1407 26.9285 42.4996
7485 1 21.0914 26.0433 43.7988
3750 1 20.7251 28.2345 43.5809
3886 1 20.3116 26.4862 40.0744
2054 1 24.0639 25.1283 41.6406
4608 1 20.3207 24.6034 42.0641
6233 1 22.1326 26.7081 41.6481
6221 1 23.0627 25.0761 45.0042
2449 1 23.3574 27.6087 44.1094
4917 1 26.9099 28.5403 41.1138
376 1 24.8123 27.4185 42.3079
52 1 25.9636 23.9257 40.3784
7579 1 27.5482 26.9555 45.629
5907 1 26.2958 25.5418 42.3214
1402 1 24.9526 23.9836 43.588
7256 1 25.4009 26.1785 44.3474
4041 1 27.2444 24.4612 44.279
6603 1 29.361 26.407 43.7801
796 1 33.7669 26.116 41.7679
5818 1 29.8439 24.8545 41.7238
391 1 28.7144 27.3283 41.5473
6357 1 30.6045 23.9887 44.138
212 1 36.2042 27.2841 44.3328
2605 1 -0.534192 23.7225 41.4728
208 1 33.9782 27.4589 43.5417
2282 1 0.789432 26.3793 40.2396
3899 1 33.5628 25.1869 44.7614
1798 1 34.9809 30.1679 41.2626
122 1 0.551563 32.106 40.5535
609 1 0.327784 29.1994 42.479
4369 1 34.9457 29.477 43.6751
789 1 4.2076 29.5848 42.9545
4444 1 7.90779 27.1811 44.2758
2627 1 5.66942 31.3916 42.422
4135 1 7.61602 30.4074 40.6111
3481 1 2.05836 30.5001 41.2606
1629 1 6.5546 28.7455 41.7096
5328 1 5.31651 30.5034 44.9523
2297 1 7.52952 30.4415 44.6362
7015 1 9.91225 31.0424 41.3175
1317 1 10.9212 30.4191 44.8445
1340 1 8.68213 28.8614 42.9367
59 1 9.85176 33.3541 41.4689
6715 1 9.06712 31.9292 43.5069
6526 1 11.5045 32.2552 42.7754
2442 1 14.1811 28.4 39.7025
709 1 13.9533 29.5437 41.8519
5036 1 13.4305 30.6127 44.156
3248 1 16.1135 29.1455 42.925
7970 1 15.5811 29.9732 45.3502
4546 1 13.2021 31.5551 40.7596
6150 1 18.7168 29.9453 42.9795
61 1 17.9035 28.5951 41.1377
937 1 15.4498 31.5627 42.7043
7584 1 17.2642 31.2327 44.367
4553 1 19.6628 31.2647 44.7716
1797 1 20.2502 28.6944 41.0181
6444 1 21.1748 30.3808 42.5719
5642 1 23.8757 31.075 44.4657
1642 1 22.5822 30.2824 40.7741
1006 1 21.9143 32.267 43.7094
7265 1 22.1554 29.8981 44.6648
4849 1 27.3096 27.7172 43.3384
57 1 23.0761 29.0341 42.6203
2682 1 24.5667 28.27 40.2325
3016 1 25.3565 30.2618 42.331
5098 1 27.1533 31.5275 41.5111
2539 1 25.5833 28.9799 44.6594
940 1 27.1386 30.2101 43.3834
6133 1 31.8414 28.0559 44.0867
191 1 31.5177 26.1798 42.726
3577 1 28.8108 29.6768 41.2301
7158 1 31.1014 31.3394 41.2637
7419 1 29.3744 28.9435 43.7616
2368 1 29.3873 31.6862 43.4551
6438 1 35.8479 27.2888 42.0147
759 1 32.7288 29.4157 41.9949
6298 1 33.303 31.6405 40.3491
5250 1 31.9629 30.7302 43.8954
6960 1 34.2506 31.9564 43.6366
5578 1 2.72515 35.4605 41.0766
119 1 0.447441 34.6019 41.6055
1722 1 2.86671 34.3841 45.0418
2388 1 -0.183259 31.5954 43.0125
2130 1 2.31606 33.1282 41.2423
938 1 1.97371 36.0817 43.435
2121 1 1.24111 33.5155 43.4238
7879 1 4.11924 -0.301862 42.668
7635 1 6.67933 32.7404 43.9161
7336 1 5.00256 33.9387 41.6008
2144 1 3.49314 32.1119 42.8488
2862 1 7.7166 32.6234 41.3688
3236 1 7.06483 34.8035 42.3241
7965 1 5.24469 34.2752 43.9031
1022 1 8.64603 0.220684 43.0182
7503 1 8.67424 34.2895 43.4554
706 1 9.81656 35.8338 45.0122
4286 1 11.9505 33.8353 40.6696
6136 1 10.1588 35.8013 41.2162
7824 1 11.5427 34.4356 42.8965
4544 1 10.6597 33.4253 45.103
2524 1 12.9775 35.6075 41.6686
1073 1 13.0321 32.867 44.7608
3003 1 13.7134 33.1332 42.5199
843 1 13.7141 -0.115911 43.436
312 1 14.7395 34.4681 44.1562
4874 1 15.6032 35.5687 41.8425
5635 1 19.4862 33.8092 44.3916
4121 1 19.0539 34.3694 41.5967
923 1 17.4613 33.1895 43.1519
3516 1 19.4834 32.1367 42.246
298 1 17.6125 33.2016 45.841
4929 1 21.5799 32.8539 41.3524
7902 1 20.09 35.5899 39.4287
282 1 21.8988 35.2007 40.9756
4065 1 21.5002 34.5135 43.4723
4127 1 23.8674 33.7999 44.0544
4142 1 26.402 34.2345 44.1529
7170 1 23.6444 32.0945 42.0589
1974 1 27.1733 35.1052 41.0153
7332 1 24.0492 34.5103 41.856
689 1 28.2743 33.6714 42.3977
774 1 30.6793 33.8416 41.9973
5028 1 25.588 32.3032 43.2078
5330 1 31.7814 35.4179 40.4564
5561 1 29.0413 0.10617 41.298
6853 1 29.0954 32.2248 40.6569
5499 1 31.3832 35.2434 43.6136
3905 1 32.6242 32.974 42.1911
7581 1 33.3518 33.7218 39.8276
5408 1 35.1864 32.9413 40.7741
4452 1 34.8922 35.5911 40.25
7960 1 35.9761 34.7414 43.7396
6468 1 33.4362 33.9207 44.4866
6206 1 33.8513 34.9743 42.2887
5111 1 2.72466 1.12832 45.2458
1954 1 -0.287087 3.04463 47.5501
6531 1 2.02603 3.29904 47.3169
1345 1 0.586561 0.900536 46.5258
5742 1 2.7281 35.4485 47.0551
4607 1 0.902001 2.64397 45.0354
7751 1 3.18933 3.73815 44.933
1018 1 5.27832 2.01291 45.6638
5967 1 4.45409 -0.722341 45.1156
4206 1 3.89369 0.595334 47.6883
3576 1 6.13125 0.483913 47.2203
4920 1 5.90071 2.01581 49.0841
1806 1 8.17196 0.613606 48.7686
6465 1 9.9741 1.28493 47.3216
3827 1 8.06912 1.04065 46.138
3115 1 7.03773 2.79593 47.3155
2683 1 9.32393 3.75203 46.2995
2515 1 15.3312 0.0968793 45.5257
2597 1 11.7812 0.606125 45.9185
3391 1 15.4434 2.77638 48.0824
5088 1 13.6405 -0.607592 46.8844
1895 1 11.8824 -0.0787938 48.4661
3743 1 12.152 2.17566 48.5691
2944 1 15.7735 2.44224 45.2252
2681 1 13.9828 1.8064 46.3909
5262 1 18.2494 1.23261 48.1573
3424 1 17.3534 2.82743 46.8593
1493 1 17.553 0.615774 45.8285
1676 1 15.9719 0.246833 47.637
7894 1 18.6916 4.01297 45.1831
7645 1 19.2281 3.33735 49.07
5010 1 20.5163 35.5717 45.6657
4460 1 25.79 -0.5999 42.8036
4395 1 24.4959 35.5635 45.5022
4765 1 24.499 0.77643 44.4827
7024 1 20.3229 0.453147 47.359
3180 1 22.2836 0.204428 45.7876
3715 1 21.4794 2.47284 48.1548
7727 1 25.2713 -0.271171 49.0994
7425 1 24.0663 1.0909 46.947
5085 1 26.3952 1.23091 47.2582
7329 1 26.9556 -0.37083 44.8454
1344 1 26.635 1.96078 44.9081
4057 1 24.545 2.58064 48.951
5340 1 31.2821 0.737209 44.7153
7661 1 29.2471 2.43164 44.8166
6473 1 28.7783 0.228011 46.2441
1411 1 32.8005 1.36965 47.5442
1979 1 30.9077 0.641593 47.1614
5830 1 28.6211 2.18778 47.6106
636 1 30.8506 3.23071 48.4896
605 1 34.1552 -0.0616093 50.31
7660 1 34.9442 1.08648 45.8289
7411 1 32.7979 -0.451389 45.9241
692 1 34.2242 35.8646 48.0646
6536 1 3.3914 5.23388 46.9812
4218 1 0.859425 5.00676 45.0908
7014 1 36.0347 6.68169 45.5779
3010 1 1.32158 5.56623 47.3931
3033 1 0.399218 8.53551 47.7728
6782 1 3.00311 7.71323 47.9813
6699 1 7.21033 5.88192 45.469
847 1 3.63443 5.89635 44.3228
1413 1 5.51637 4.33068 45.8051
2937 1 4.42705 3.28972 47.6154
296 1 6.50644 4.8008 49.1776
1091 1 4.53205 7.13126 46.1658
2618 1 9.51201 5.7096 45.0369
4474 1 7.40472 3.00401 45.0564
3661 1 8.5851 5.5767 47.7498
3169 1 10.7898 7.37006 44.9723
4382 1 10.8313 5.36239 46.9855
6289 1 11.8165 5.84139 48.9744
4532 1 10.0129 3.70258 48.4363
3638 1 13.8694 6.17883 45.8906
766 1 13.3641 4.09761 47.295
3260 1 14.4695 6.41653 48.3238
5569 1 15.7397 4.63595 46.2218
144 1 18.151 5.29379 46.7075
455 1 19.7849 2.47684 46.3634
2688 1 16.7257 6.86208 47.2249
3652 1 16.7895 4.79416 48.8324
6612 1 20.776 3.7618 44.3518
148 1 19.9151 6.19643 44.9234
7491 1 22.5005 5.39792 45.2761
1826 1 21.1178 4.53683 46.9201
7100 1 24.8982 5.17584 45.6998
2208 1 21.1057 4.58504 49.4505
380 1 20.0123 7.41123 50.1288
1732 1 22.2112 6.64688 48.0966
3338 1 22.1997 2.61517 46.1298
3664 1 26.8885 5.81643 47.6301
6440 1 27.4025 4.95207 45.029
5334 1 26.663 3.72866 46.8079
6459 1 28.4308 9.00204 46.4614
3026 1 23.5581 4.15476 47.5137
300 1 29.006 6.46935 47.2062
5265 1 28.7457 4.40636 48.962
7967 1 31.488 5.06134 47.4407
4278 1 31.22 2.73219 46.0813
5427 1 29.4813 4.3605 46.3976
2700 1 30.6315 7.55769 48.4466
5493 1 30.2614 3.12197 51.0411
686 1 33.2348 2.96914 45.1263
7340 1 35.5196 3.69177 45.3508
5904 1 35.5914 5.19485 47.6247
701 1 32.7646 6.47939 48.7912
4282 1 34.6411 6.63901 50.7624
2381 1 33.9278 5.56912 46.0281
7597 1 33.4341 3.70262 47.9565
2035 1 0.596828 8.60474 45.5413
4796 1 2.09206 7.15475 46.0148
599 1 2.1197 10.5603 46.2623
4202 1 4.92481 8.66118 48.4647
7801 1 2.82422 9.87603 48.4758
4297 1 2.91498 12.2458 49.191
3563 1 6.12433 12.0656 46.3238
469 1 5.54935 8.30604 44.5126
2450 1 4.5564 9.94984 46.1446
3891 1 4.99389 11.0534 48.487
7492 1 3.7517 12.129 46.9
6606 1 6.49304 7.07467 47.4335
3181 1 9.17514 10.7521 46.5708
6067 1 6.87074 9.65186 45.9519
6929 1 10.2195 7.28387 48.7622
1506 1 8.72969 8.41718 46.6519
363 1 10.8633 9.20118 47.2772
4138 1 12.5439 8.9263 45.3624
2532 1 12.3603 7.52485 47.3299
1879 1 14.5358 8.33247 46.7508
3094 1 11.7729 8.75229 49.7464
3724 1 13.2318 9.96083 48.1069
5239 1 14.5142 12.2344 45.7198
1884 1 15.3448 8.54369 48.8739
2061 1 19.8414 9.588 47.2899
2292 1 19.0425 8.58254 44.9849
2281 1 17.3939 9.42433 47.9094
2125 1 17.6147 7.45376 49.5805
5501 1 23.5547 7.53084 46.5157
2143 1 22.513 8.90435 48.4406
7648 1 21.4768 8.00955 46.0111
4055 1 22.5037 9.97701 46.4518
5183 1 19.2641 7.49629 47.0848
5039 1 24.0717 10.8184 48.38
2774 1 24.7531 8.64315 48.4046
6062 1 26.0846 7.47745 46.0637
55 1 24.6159 9.96515 45.795
3329 1 26.9664 9.80909 44.5629
1814 1 26.7065 9.91068 47.1941
941 1 27.83 8.10208 48.6063
7883 1 30.5782 11.7863 44.3225
679 1 31.9629 11.557 47.7114
7989 1 30.4582 9.77367 47.0778
4708 1 28.7697 11.2724 45.8147
1910 1 28.9133 10.7692 48.5395
2797 1 34.4068 8.38682 46.0367
2148 1 -0.0310953 10.6245 46.9395
546 1 32.827 9.48521 47.232
5895 1 32.0027 9.57224 45.1304
1892 1 34.7196 7.25113 47.9147
6446 1 34.7853 10.6975 47.996
438 1 0.740039 11.1368 49.7805
4392 1 -0.209125 13.9941 44.9949
1495 1 2.33891 13.8719 45.3629
5808 1 3.24763 14.2211 47.9879
2938 1 0.00610519 13.6218 48.8933
1891 1 1.26522 12.7168 46.9407
7005 1 1.13565 15.146 46.91
5905 1 3.35844 15.8063 45.8202
2837 1 4.64255 14.1693 46.1342
5971 1 4.88433 12.9421 44.26
1162 1 7.84501 14.0489 47.0861
4300 1 5.6401 13.4844 48.3448
4371 1 7.20591 15.8488 48.288
450 1 7.94096 11.9021 48.2663
2863 1 10.3845 11.3964 49.4867
2776 1 9.91958 13.2035 45.6597
7243 1 10.2423 14.4843 47.7796
7580 1 10.9509 12.2395 47.6291
4308 1 6.80357 13.9162 44.5401
3887 1 12.509 13.4625 45.9566
2361 1 11.6197 11.1807 45.7114
5896 1 13.7237 12.6559 48.168
691 1 15.2533 14.2525 47.1067
4443 1 15.6665 14.3478 49.1322
6074 1 13.1504 15.2001 47.4852
5314 1 17.7675 14.6115 46.8152
5415 1 18.3051 11.3465 48.5893
925 1 16.5154 12.9487 50.8398
2625 1 15.5589 10.4384 47.2245
3578 1 19.0177 11.178 46.0147
5968 1 16.1597 12.4648 47.8324
286 1 19.3476 13.1216 47.592
6056 1 20.4399 14.7649 45.9535
1320 1 23.1441 14.8926 45.7716
4210 1 21.191 11.1645 48.2976
3422 1 21.0527 12.4878 45.9398
6532 1 22.0252 13.8763 47.6957
3108 1 24.5901 12.7796 46.9812
6374 1 24.0072 15.4429 48.0083
4704 1 26.2929 11.8173 45.6748
5413 1 26.069 14.507 47.4182
5568 1 28.3992 13.7608 45.6022
707 1 24.7558 13.3965 49.351
532 1 26.8108 12.3456 48.1779
2713 1 27.0933 13.79 50.0142
7985 1 30.3122 14.5819 44.2793
7756 1 30.488 15.597 47.3471
2616 1 30.6653 12.9777 46.1904
6216 1 29.0798 13.2294 48.2544
861 1 35.3653 12.687 46.485
3433 1 33.1141 14.4022 46.6625
1119 1 33.0065 11.9135 45.8147
5325 1 34.1225 12.8174 48.5467
5577 1 31.5317 14.2161 49.2045
6219 1 35.7348 15.1478 46.8621
5975 1 2.68837 17.9065 47.1486
2767 1 35.962 17.1706 48.4193
5737 1 1.32373 19.8 46.4149
6068 1 6.31518 15.9785 45.7446
7719 1 4.93518 15.982 47.9691
3646 1 7.94949 17.998 48.1963
6309 1 5.47743 18.343 47.7104
3114 1 5.78972 17.5137 49.8381
4776 1 7.01144 19.9749 48.8135
3431 1 8.84546 15.4286 44.8903
1973 1 6.15975 15.2055 50.2408
2274 1 9.24045 16.5405 47.1982
5572 1 11.2935 15.8888 46.0061
7253 1 11.2003 16.1481 48.564
6597 1 9.49744 17.9254 45.0376
4131 1 11.3509 18.0994 47.058
4698 1 14.3053 20.5491 45.1544
1508 1 13.3182 15.63 44.9083
5978 1 13.5532 17.3093 46.7348
2132 1 13.0486 19.4712 47.2879
1098 1 12.367 17.9951 44.681
7182 1 12.5724 17.9083 49.1896
2308 1 15.317 17.0996 44.5181
3246 1 15.3691 18.9697 46.3131
5470 1 18.7722 16.4824 46.8078
1987 1 18.2725 17.0717 48.8813
4679 1 17.4715 18.3042 45.405
3423 1 16.2524 16.6961 47.0468
2070 1 18.9514 19.3879 46.9695
2042 1 21.7479 17.0048 45.1052
3897 1 21.7412 15.922 47.4219
1260 1 21.192 19.1345 45.9447
3890 1 23.1611 17.4879 46.8388
7566 1 20.6123 17.7842 47.9461
6779 1 24.936 16.3744 45.8725
4399 1 22.6879 18.3714 48.9721
5730 1 27.2479 15.9448 45.8264
7259 1 25.8184 18.6422 46.1732
2051 1 26.2644 17.0783 47.6367
4792 1 28.5074 17.4899 47.0154
5508 1 28.1063 15.4889 48.2745
6938 1 29.7184 16.7691 45.3343
6143 1 30.4006 18.8821 45.7741
7478 1 31.9951 17.8097 47.2448
63 1 30.0899 18.7955 48.7347
837 1 33.8274 18.4417 45.0056
58 1 0.515077 17.1846 45.8799
3648 1 34.2491 16.965 46.715
6784 1 35.4494 18.6892 46.7827
4695 1 34.5149 17.3551 50.2812
367 1 2.64779 19.8891 48.5769
297 1 3.89394 19.6568 46.4636
2685 1 3.61266 20.0053 43.4801
1598 1 3.14468 24.1216 46.5609
6452 1 2.50396 21.7691 46.6275
3106 1 0.635999 23.7748 46.1372
5883 1 5.71757 19.5655 44.4665
1096 1 4.99236 20.9329 48.0359
3415 1 7.17455 20.3694 46.5521
3885 1 5.50457 23.7807 45.7356
4144 1 7.50506 22.1892 47.9202
4931 1 4.85256 23.3871 47.9876
7577 1 9.63548 21.0709 45.7954
3893 1 7.54765 21.9835 45.0542
7575 1 7.32986 18.0941 46.0283
7087 1 9.33418 19.6278 47.4973
6210 1 9.69288 22.5609 47.9092
6395 1 11.1906 20.8667 48.088
3894 1 13.7982 24.2397 44.7606
3726 1 11.639 22.9415 44.8811
4150 1 13.0787 22.1519 48.6961
4854 1 11.6564 20.1448 45.2809
3242 1 13.1464 22.0786 46.1822
5826 1 16.8681 26.8598 49.5525
1673 1 19.1153 20.3913 44.7534
3736 1 17.0907 20.8395 46.3222
4686 1 15.4452 21.2849 48.0025
6199 1 17 19.7184 49.0126
7349 1 18.0721 22.9009 45.3326
48 1 16.1168 23.8095 47.8335
4556 1 15.7195 22.7329 45.9164
1488 1 18.0947 22.7491 47.8582
3092 1 20.3938 23.2274 48.1272
5097 1 21.568 20.2249 47.9838
5331 1 23.7501 22.1041 45.325
3101 1 20.2171 21.6985 46.242
2237 1 21.1414 23.4822 44.5254
2787 1 27.9474 20.7367 45.2294
7831 1 24.0149 19.8865 47.6934
5106 1 27.4332 19.3445 47.8785
4153 1 25.8207 21.1924 49.2483
3907 1 29.4196 20.6417 47.4614
1820 1 27.6971 22.8781 48.8046
7731 1 25.1286 23.1116 48.4679
5428 1 31.9626 20.3156 47.62
683 1 32.0655 19.8386 44.7064
5333 1 30.6613 21.6023 45.8121
3993 1 33.7672 18.7146 48.5894
5917 1 30.5795 22.1783 48.366
4534 1 34.3735 20.9158 46.1638
6279 1 -0.00707732 21.7314 46.8124
608 1 35.0178 23.3808 46.2395
5487 1 35.9619 23.6743 48.1941
950 1 34.833 21.198 48.6867
2636 1 32.8679 22.5707 47.637
2448 1 1.74226 25.8813 45.2701
6203 1 4.28563 25.5918 44.7628
1577 1 1.62984 25.7892 47.9108
7319 1 3.13611 27.8624 48.1512
3509 1 2.78392 24.2851 49.1178
7157 1 1.39544 28.1624 46.9199
6934 1 7.35635 24.7456 44.7941
5897 1 8.25252 26.9772 46.8069
7172 1 4.15643 25.9555 47.3748
3086 1 11.4851 27.877 44.435
5579 1 6.85038 25.2818 48.5625
927 1 9.44048 23.3699 45.3888
3562 1 10.9233 27.2104 46.7507
2772 1 8.95251 24.7902 48.1195
3496 1 9.01711 27.374 49.1349
278 1 11.8268 25.3221 44.3143
3168 1 10.9523 24.6225 46.6265
456 1 15.6385 25.8943 45.0139
1008 1 13.7087 24.1715 47.2377
611 1 14.2956 27.687 45.931
1500 1 13.0303 26.1753 46.6572
5414 1 17.5243 25.2383 46.1122
4938 1 15.6686 26.0341 47.464
3005 1 18.974 24.667 43.7556
308 1 16.0575 28.9737 50.9412
1028 1 18.1273 24.8331 48.5404
4475 1 20.6372 26.0476 48.5435
1324 1 19.0068 27.0458 44.9849
4043 1 19.9412 25.0049 46.0034
5918 1 25.1642 24.1856 46.0883
4545 1 22.2917 25.0401 47.047
292 1 22.6372 24.2706 49.1761
1033 1 22.9113 22.2286 47.4035
303 1 24.6612 25.4821 48.7069
2135 1 27.0045 25.3997 47.3078
5889 1 27.0732 25.037 49.4471
2279 1 26.2468 27.1214 49.2009
1753 1 27.2976 22.9742 46.4276
1742 1 31.1882 23.8039 46.5284
202 1 28.8596 25.085 45.838
6530 1 29.4282 24.3319 47.9815
2640 1 31.1313 26.1591 47.3775
4951 1 31.4479 25.8214 45.1796
1640 1 36.0434 25.7264 46.8163
6936 1 -0.200632 27.0933 48.4868
3013 1 33.2469 24.9541 47.1608
5440 1 32.6906 27.6662 48.7826
3825 1 33.5538 27.1559 46.3581
5669 1 3.37478 27.6073 45.3068
5267 1 2.03283 30.7207 43.8041
2294 1 2.37624 29.9507 45.9055
2628 1 1.28796 28.3379 44.1878
7245 1 1.60898 32.6901 46.2054
6947 1 2.71636 30.4797 48.3519
2138 1 4.36449 28.985 46.8645
7258 1 6.21124 26.7917 45.9618
1174 1 7.03007 29.0687 46.1802
6539 1 4.6616 29.6334 49.2181
1890 1 7.13269 29.7777 48.5664
4128 1 6.03049 27.5632 48.2749
4069 1 4.99088 31.3156 47.3351
763 1 9.4858 28.6817 45.355
5255 1 7.85735 31.9998 48.4187
7413 1 9.03717 31.0402 46.3635
3826 1 10.1149 28.9351 47.8639
7752 1 12.4499 29.363 46.4322
6864 1 11.0033 31.0282 48.9216
2056 1 16.4643 27.8226 45.3714
7802 1 16.3938 28.6076 47.5276
3727 1 11.194 32.038 46.9437
602 1 14.3801 28.0777 48.4482
2445 1 13.8059 31.3015 47.076
3328 1 15.2602 32.2408 45.5688
7961 1 12.9467 29.807 48.9991
6379 1 15.3006 30.3949 48.9384
3744 1 18.4357 29.2366 45.9145
1993 1 17.233 30.9469 46.75
7346 1 17.0871 31.6929 50.0913
5738 1 18.5043 27.2663 47.8067
7486 1 20.5935 29.2514 46.7005
4934 1 19.0588 30.5678 47.969
5336 1 22.5687 27.4097 48.0816
5251 1 21.5006 27.3683 45.9023
2369 1 23.3773 29.0352 46.6024
6703 1 20.8982 27.996 49.8285
3259 1 21.9308 29.7891 48.7259
7673 1 24.334 32.7038 45.9994
5641 1 25.9368 31.1333 46.426
306 1 24.2717 28.9965 48.9426
6924 1 28.3415 30.4141 45.6598
5266 1 24.7537 26.8596 46.6685
6631 1 24.0323 31.224 47.9104
1641 1 26.39 28.6511 47.1266
4933 1 28.4419 27.3191 47.9381
7969 1 29.9944 27.6995 46.0058
5636 1 30.581 29.8785 45.5661
5174 1 29.0862 29.8211 47.9141
4370 1 32.1227 31.7148 46.0999
3403 1 31.6476 28.8077 47.0722
1265 1 31.1064 31.2694 49.16
1971 1 31.1589 28.9909 49.7991
3093 1 -0.175486 30.6765 45.0472
4539 1 33.2446 29.422 45.2401
5479 1 34.5536 31.2455 46.1212
5884 1 35.7483 28.357 46.5095
1810 1 33.9262 29.4363 47.6215
375 1 0.105128 30.0191 48.07
1880 1 3.733 32.0794 45.0891
6696 1 0.576991 34.8288 45.9608
5595 1 1.38848 33.7796 48.4109
3186 1 -0.0815483 0.228917 44.3549
5019 1 3.39337 32.7622 47.9173
2136 1 7.17226 35.3964 45.1656
2622 1 4.50566 35.0887 48.7168
6767 1 4.74771 33.6265 46.5311
7351 1 6.62335 32.1864 46.3208
4386 1 5.86854 32.3453 49.5684
3790 1 8.36481 33.5272 45.4994
5653 1 6.61388 34.3672 47.4422
6527 1 8.39023 35.7775 47.3087
2764 1 9.8238 35.4176 48.8512
6683 1 11.2134 34.7636 46.8759
4778 1 11.6351 33.2992 48.9623
538 1 9.47365 33.4956 47.5819
2695 1 13.516 33.862 46.9109
1716 1 12.5033 35.2428 44.96
4549 1 13.9054 34.6362 49.101
5494 1 18.2514 35.0497 46.9186
6615 1 15.6667 32.765 48.1991
5077 1 15.9284 34.8291 46.226
795 1 16.4528 34.9046 48.4202
6923 1 18.4073 32.8394 48.194
5663 1 23.6685 33.9203 47.9927
6303 1 19.9904 33.0862 46.8158
1808 1 21.8053 31.5908 46.3466
2561 1 23.0539 32.8315 50.0389
1266 1 22.0793 34.0872 46.0511
541 1 20.9571 32.0915 48.8987
315 1 25.7829 32.727 49.0766
5809 1 27.9366 31.824 47.7641
6373 1 27.5738 32.2866 44.7862
6837 1 26.1056 35.6466 47.1595
7733 1 26.3583 33.3857 46.6878
5254 1 28.0346 33.7861 49.289
5740 1 28.0434 -0.105459 48.6751
295 1 29.0011 34.1737 44.3346
3965 1 29.237 -0.149677 43.9906
6372 1 29.7742 35.2093 48.3129
302 1 28.3914 34.4958 46.4874
4533 1 31.0588 34.9906 46.0415
3256 1 31.5855 33.5686 48.0235
775 1 29.6961 32.1709 46.3984
852 1 31.1814 32.8321 44.3984
6361 1 32.0575 -0.717967 48.4741
7416 1 35.8806 32.906 45.2394
842 1 33.819 33.3367 46.8457
6367 1 36.8142 32.1654 47.6841
4551 1 35.1148 35.639 45.716
4716 1 35.2407 33.8956 48.5324
7643 1 33.4134 31.7932 48.3577
2960 1 0.108386 35.6712 47.8857
1491 1 -0.390633 -0.0265048 50.2071
2317 1 1.01881 3.73045 49.5256
5011 1 1.37019 1.39549 48.5835
2390 1 1.38233 1.71882 51.0119
2296 1 3.4595 1.6013 53.3159
1668 1 1.98211 0.073006 52.4982
7650 1 3.59527 1.90326 49.8371
209 1 6.11538 -0.208851 49.9342
7273 1 4.45322 3.84083 53.35
5517 1 4.03801 -0.160667 50.6964
6681 1 6.54918 36.0705 52.534
2620 1 5.34227 1.46671 51.9076
7889 1 10.4334 0.889459 52.1268
5083 1 10.2034 1.58674 49.9335
6147 1 9.07352 -1.16307 53.1771
2293 1 11.5709 35.4831 53.182
5012 1 7.44286 1.64004 51.0162
2372 1 8.52009 36.2486 50.9386
2080 1 13.9627 0.632402 49.0618
1743 1 12.8239 0.246461 50.8894
6927 1 12.7056 2.52996 50.924
6122 1 14.9035 2.15739 50.5809
2865 1 30.6855 27.6295 53.9005
7591 1 15.2595 0.828873 52.7799
6214 1 18.1214 2.24759 52.2724
2046 1 17.1415 2.63523 49.8428
527 1 19.2741 1.16731 50.3721
5475 1 33.4767 17.3203 35.501
3323 1 23.642 1.74581 52.1439
6228 1 20.8968 0.299984 49.3802
6312 1 21.4392 2.30779 50.3957
1991 1 21.8115 0.0818984 51.7233
4955 1 20.6765 1.74788 52.6883
6445 1 22.77 36.0643 47.9807
5972 1 5.63237 28.1011 37.0638
2376 1 23.1651 0.995513 49.8235
5257 1 26.3683 0.966955 51.5153
3252 1 25.887 3.2824 52.4763
4537 1 27.0506 2.07168 49.5164
4380 1 27.9059 2.36574 52.3452
4928 1 16.3563 34.6056 52.9945
4785 1 24.5875 18.654 52.7587
159 1 30.3488 0.818376 52.4435
1893 1 30.0736 35.7262 50.6545
1090 1 31.9583 1.03281 49.8338
1567 1 29.5062 1.13557 49.9208
5178 1 29.9054 3.60186 53.4247
7418 1 10.9227 21.1038 52.1697
2796 1 34.4701 34.8595 51.909
6129 1 35.2001 1.30427 48.1775
2928 1 33.8497 2.41168 49.8527
5489 1 24.909 10.0348 35.9745
952 1 -0.563776 0.909553 52.645
6454 1 34.1429 1.34055 52.2119
7976 1 27.5083 22.4753 53.4611
6686 1 2.25752 6.19184 51.1946
6308 1 -0.114347 4.80685 51.9056
3407 1 2.89581 3.59124 51.3363
4555 1 3.18636 4.47529 49.2348
6305 1 36.0741 2.54863 50.9154
4522 1 4.67053 6.14745 48.8896
4773 1 5.06099 3.81152 50.9691
7906 1 7.74813 3.71033 52.0841
5892 1 7.13642 5.86119 51.4374
3429 1 4.77429 6.00832 51.857
7980 1 16.7933 31.221 36.2186
4868 1 8.26767 2.9923 49.4316
3420 1 7.86058 7.04693 49.3308
2530 1 14.6271 3.58726 36.8409
7679 1 9.10168 5.97149 52.8706
5089 1 9.37828 5.20617 50.0614
3397 1 10.3528 3.47706 51.5351
5180 1 19.6013 33.6831 50.6931
2127 1 13.6278 6.91783 50.6932
4051 1 14.0539 4.28727 49.5551
1259 1 11.8431 5.05878 51.1048
1667 1 14.1383 4.49162 51.9198
2779 1 14.2075 6.19033 53.2566
5482 1 16.959 4.30322 51.106
4227 1 20.1782 3.90326 51.6179
3564 1 18.1703 4.48868 53.5624
1327 1 19.148 5.79322 48.7353
1831 1 17.1582 6.38736 52.7444
5167 1 18.7327 5.70646 51.1953
4068 1 26.4396 35.0836 50.7451
1333 1 23.72 3.88725 50.6976
6152 1 21.7788 5.75956 51.4084
1005 1 23.7298 6.14283 50.1222
4552 1 22.1783 3.64864 52.7117
5509 1 25.1801 16.3577 53.7908
5021 1 14.9976 18.5237 53.6272
6453 1 24.5095 5.31414 52.93
855 1 28.0669 6.3532 49.9699
953 1 24.7427 6.22454 48.0952
3895 1 25.8275 4.72966 49.4395
2560 1 26.1368 5.83759 51.4993
6139 1 30.3875 5.64088 49.8941
4470 1 29.075 5.71712 52.1056
2244 1 27.2721 4.14068 50.9079
5910 1 31.3788 4.8522 52.2054
3022 1 32.4256 4.6409 50.1667
5995 1 16.6707 16.7728 53.3033
4447 1 25.481 33.0912 51.4376
2384 1 25.2634 13.6049 53.7418
1757 1 2.28465 4.91611 53.5252
123 1 35.3013 4.51218 49.6605
5263 1 34.2084 4.08316 51.9156
378 1 32.1912 2.40418 51.7732
5660 1 0.475086 6.48385 49.3634
5015 1 34.7182 8.76496 52.3681
4940 1 1.40644 8.48662 50.0637
7753 1 0.472483 7.09494 51.7535
6314 1 3.75139 7.84171 50.6016
2203 1 -0.217938 10.126 52.1009
6939 1 2.41841 9.03734 52.1756
46 1 26.8111 31.9822 53.5489
6380 1 7.08292 9.9468 49.0435
4766 1 26.3563 15.1376 35.7318
4451 1 4.42804 8.3223 52.911
5835 1 5.96702 7.61413 50.6524
5115 1 8.53301 10.9736 50.8645
158 1 6.55036 9.77244 53.7832
3502 1 6.01713 10.0021 51.2689
5338 1 5.888 12.3347 52.524
6770 1 8.4352 8.44666 51.0552
2786 1 26.084 34.821 52.9611
6937 1 10.5616 9.93426 51.5712
704 1 11.0399 7.14519 51.6578
1482 1 15.1574 8.11223 53.7437
7649 1 9.14224 9.56198 49.0365
2599 1 14.5634 10.9949 49.601
5105 1 15.8217 5.96097 50.4373
4367 1 12.6758 7.92282 53.041
3659 1 13.6628 9.18616 50.9543
4378 1 15.7358 8.26101 51.4571
2380 1 13.882 9.84409 53.6825
1963 1 12.3419 10.9539 50.1755
2217 1 15.0973 11.043 51.9433
2782 1 23.2885 33.3985 52.2678
3162 1 16.9935 10.3083 50.3818
2614 1 18.4552 8.35823 51.68
1334 1 16.7844 9.48931 53.1351
3650 1 19.694 9.40826 49.6325
1326 1 20.0725 7.13111 52.8612
699 1 20.5827 9.51095 52.2154
1900 1 22.1847 7.93248 50.5224
5800 1 21.9452 10.5587 50.0731
4390 1 22.9836 7.33195 52.4298
2615 1 23.0045 9.63775 52.3307
2531 1 25.4108 7.7867 52.8836
1339 1 24.3602 9.05674 50.8099
639 1 25.8193 7.40646 50.1066
3492 1 25.897 10.166 52.1007
5881 1 26.2804 10.2347 49.6138
612 1 27.5753 7.84263 53.2236
2073 1 27.651 9.08017 51.0175
1170 1 30.7268 9.70229 49.5489
4536 1 29.6664 7.6939 50.8867
6623 1 29.8905 10.2277 51.942
2711 1 31.9834 6.95776 50.8965
2784 1 30.1725 8.02307 53.5447
6390 1 29.0706 17.2891 52.2533
472 1 30.9037 10.7974 54.1709
6059 1 32.4544 11.4806 50.099
1089 1 32.8717 8.92339 49.484
7897 1 35.6756 8.69269 50.0444
5103 1 32.4619 9.86989 51.7338
4774 1 34.6835 11.8959 52.5202
3997 1 35.2069 11.165 50.147
523 1 1.89483 16.2541 48.7118
5721 1 2.10207 11.7583 51.4299
7562 1 1.6041 14.1203 52.7988
4700 1 2.00271 13.8571 50.367
3111 1 3.85656 10.1516 50.3942
126 1 4.00488 15.3355 50.7232
2773 1 3.49855 12.807 52.6437
2400 1 4.54797 13.006 50.5015
6225 1 5.74157 14.5482 52.5181
945 1 6.47238 12.0649 50.2234
690 1 7.88773 14.5743 51.7702
3524 1 8.94211 13.3333 49.6932
3511 1 10.0507 12.2661 51.9268
1984 1 10.1222 14.3893 51.4945
1403 1 11.4665 13.5004 49.5369
2860 1 23.8302 22.8702 53.608
4062 1 12.6424 12.2295 52.1023
2630 1 14.2773 13.3651 50.6868
1104 1 14.7426 13.259 53.1457
769 1 12.5584 14.4286 52.2662
7810 1 18.6799 11.0092 51.587
5352 1 18.0709 14.1347 49.2039
6780 1 17.2539 14.8947 51.6243
781 1 19.8135 11.4729 53.5084
1258 1 19.2798 13.2568 52.1031
5894 1 0.916166 19.4787 52.4774
2770 1 20.887 14.9439 52.0736
2943 1 21.6065 11.9155 52.229
7093 1 19.9318 12.0182 50.0631
6375 1 22.326 13.0089 49.7844
3975 1 24.101 11.4571 50.6817
4517 1 23.4298 13.5283 51.9593
3265 1 20.4631 14.3675 49.6748
2124 1 24.1517 11.5631 53.1819
7099 1 27.1064 12.053 53.1914
2213 1 25.0677 14.9357 51.6945
3672 1 25.804 12.7706 51.5816
2478 1 27.206 14.7926 52.844
5734 1 32.5596 7.91955 53.2186
5748 1 23.5634 35.1394 54.0478
84 1 28.0672 11.6527 50.8938
5882 1 30.2077 12.0933 49.841
5188 1 31.4466 15.6555 51.1181
206 1 29.7187 13.4735 51.4615
1273 1 32.0328 12.6899 52.2907
863 1 34.1831 15.1242 48.4606
3100 1 36.2876 15.151 52.5877
4616 1 33.6717 13.7004 50.923
2305 1 33.8356 15.7367 52.0042
6469 1 0.00693171 12.4787 53.5586
2852 1 4.33679 10.6866 52.8808
392 1 -0.0644257 12.8106 51.3871
6953 1 1.0233 18.2516 49.6791
6682 1 1.83706 16.614 51.2859
4557 1 35.6798 14.9383 50.5047
6366 1 35.5612 19.546 53.0299
293 1 3.62942 17.7006 49.2452
3498 1 2.89284 19.0885 51.476
4800 1 21.7494 34.7031 50.588
4373 1 4.80407 17.5481 52.0575
1192 1 6.60296 16.4225 53.1197
1812 1 7.37701 18.475 52.5874
5410 1 7.91386 18.4757 50.4991
6771 1 31.8028 16.9621 52.7807
2704 1 8.95126 15.8007 49.7507
7328 1 9.96731 19.117 51.6984
2210 1 9.62603 16.8199 51.8616
1969 1 11.616 16.0248 50.9217
7013 1 11.9141 18.0619 52.0266
2769 1 10.2452 18.2088 49.6318
6528 1 15.0153 18.2979 48.6898
7563 1 13.5799 15.7888 49.3865
226 1 14.3233 17.8837 51.1818
5823 1 13.9344 20.1534 49.661
3725 1 13.6712 20.2448 52.2758
5888 1 17.4819 32.8258 51.9857
2954 1 19.3694 19.0601 49.4802
6848 1 14.8426 15.4769 51.9622
3579 1 16.2031 16.3389 50.0044
1183 1 17.1546 18.2722 51.5257
4870 1 18.8272 16.4898 51.5047
3102 1 19.8439 18.7601 52.0825
7905 1 20.9678 16.9709 50.1326
7654 1 23.2277 15.2377 50.1198
2226 1 21.0216 16.8319 53.4231
1981 1 24.1768 17.6828 50.646
4530 1 26.4808 17.1379 51.6662
3723 1 23.0641 16.2035 52.1967
65 1 27.7466 17.7621 49.8064
7174 1 26.6442 19.4832 50.9564
462 1 25.9767 16.0369 49.8529
2867 1 29.8626 15.2386 53.3751
1816 1 28.3058 15.2121 50.9333
6478 1 29.9597 16.3063 49.3727
2059 1 33.5077 19.8202 51.2721
6946 1 32.1391 18.1147 50.353
239 1 30.3848 18.9539 51.2886
7403 1 16.1457 3.38637 53.3278
7165 1 32.4888 16.3381 48.792
1235 1 6.90168 22.9119 36.3842
2844 1 36.0946 17.5718 51.8546
687 1 33.8343 17.9185 52.9813
7807 1 1.70222 24.449 53.2697
3032 1 24.0649 34.8904 50.1565
4559 1 3.12813 22.0909 50.0184
6297 1 1.36477 20.6439 50.2802
7984 1 0.108064 21.7312 52.8817
6523 1 1.22384 23.1612 51.4215
1570 1 2.50207 21.6495 52.8285
619 1 0.9872 22.4074 48.9242
3815 1 4.58395 21.4494 51.5794
4843 1 4.86468 19.4427 50.1891
6552 1 4.42267 19.8054 53.2696
1756 1 6.65927 20.5343 51.3867
7354 1 5.97522 22.1347 49.8298
4129 1 20.7504 34.8762 48.2763
138 1 6.27401 23.2068 52.0904
2215 1 8.50208 22.9858 49.8796
6307 1 1.38005 2.79037 53.2407
1646 1 9.15258 20.53 49.6676
1336 1 8.48728 21.8885 52.0142
7246 1 11.8537 19.813 50.3461
2931 1 10.8565 22.0962 50.2503
6869 1 7.60041 7.60515 53.1368
5825 1 12.1952 24.1968 49.8749
7672 1 14.728 23.587 49.7977
6693 1 13.0015 22.1548 53.5369
853 1 15.7235 21.175 50.5102
56 1 13.4422 22.311 50.9904
1182 1 11.7866 23.734 51.9727
4221 1 20.8072 34.2372 52.7538
3595 1 17.3528 22.3253 49.9737
4465 1 17.8281 20.6791 51.9911
1424 1 15.8605 23.0653 51.7259
3351 1 16.4484 24.7025 50.154
3810 1 18.2785 24.3775 51.7881
1485 1 19.679 21.3295 49.2867
5280 1 23.9329 20.0369 50.2456
2697 1 14.3185 32.2976 36.3292
2611 1 21.4363 20.1747 50.6554
5735 1 22.4051 18.75 52.1799
698 1 21.6827 23.2584 51.9631
1569 1 19.6888 22.0218 51.3323
7022 1 24.2891 36.1065 51.9508
3190 1 17.6124 -0.044316 51.8993
6058 1 25.5346 18.6006 49.2765
3409 1 27.8599 19.6419 53.6169
7737 1 23.1552 21.0116 52.3405
6558 1 26.417 22.075 51.2125
7494 1 25.3443 24.7263 53.2324
5496 1 31.5782 24.1878 53.6255
4852 1 28.5035 20.8133 49.4513
2552 1 19.6392 23.1262 53.4221
6548 1 31.2953 20.6284 50.0099
1829 1 29.2969 21.8459 51.6095
6617 1 31.3309 22.9937 51.1064
5913 1 31.4172 21.2759 52.7977
1186 1 4.94985 22.5069 53.8283
5026 1 27.4952 4.47 53.353
1184 1 35.7178 19.6746 50.7674
3754 1 0.134471 20.2019 48.4433
6543 1 34.1939 24.0016 49.2623
1972 1 33.1629 22.0334 50.1834
5195 1 34.017 21.6653 52.4859
3802 1 35.7496 22.1672 50.6006
7749 1 12.4869 3.27069 53.0928
1276 1 12.9867 32.1576 52.8897
7815 1 -0.0794126 25.883 53.157
7641 1 1.26125 25.4669 50.2101
1017 1 3.23546 26.5055 52.8138
5988 1 3.49191 24.2078 51.5261
4857 1 3.6582 26.7191 50.4667
1167 1 -0.197321 27.0142 51.3327
3347 1 34.5228 32.2132 53.1821
1110 1 5.60078 25.6046 52.6806
6202 1 5.31389 24.4025 50.2456
7732 1 7.92925 26.2985 53.1075
4937 1 6.17787 27.2417 50.7032
4455 1 18.5682 34.5484 53.3556
2847 1 34.111 14.0447 53.522
1483 1 7.54811 25.2074 51.0234
3808 1 9.69825 24.9438 52.7055
4456 1 10.1264 24.7893 50.2442
3824 1 9.6333 27.1716 51.4008
1988 1 11.6853 26.4356 49.1532
2052 1 13.894 26.6007 53.2579
623 1 13.9954 24.5325 51.8886
1023 1 11.8746 26.3612 51.8189
1582 1 13.9493 25.9291 49.1719
3331 1 16.1433 25.3142 53.1996
4697 1 15.09 26.2649 51.1345
2053 1 19.1269 26.175 50.4896
6544 1 17.6485 27.0782 52.2395
2871 1 21.8607 22.1953 49.7884
1837 1 23.7091 26.9797 50.1027
7030 1 21.6766 25.7214 50.6996
3245 1 20.1908 23.9329 50.1826
5436 1 20.0973 25.5947 52.655
5593 1 23.6113 24.4796 51.6449
3354 1 21.71 27.4604 52.3888
6611 1 24.0673 22.4156 50.5905
390 1 23.8334 26.5497 53.1539
2288 1 25.3151 26.1241 51.2261
3500 1 27.2711 24.6454 51.8515
1245 1 28.5416 26.0499 53.162
632 1 28.1261 26.8613 51.0226
6956 1 29.3096 24.3261 50.4195
5014 1 30.6478 26.0026 51.8174
6160 1 29.4496 23.902 53.0037
5520 1 30.0908 26.9306 49.5573
5488 1 32.4098 25.9057 50.4829
1654 1 10.9442 16.2414 53.778
772 1 34.8734 28.6398 50.16
7109 1 31.6971 24.1858 49.1471
3090 1 36.0041 24.8001 50.5026
3105 1 33.8086 24.104 51.5456
2232 1 34.4105 26.3069 48.9565
4213 1 1.33981 28.475 49.4432
137 1 35.4171 28.3805 52.8005
3165 1 1.45829 27.8797 52.915
1574 1 0.419559 29.3784 51.5209
309 1 4.02813 30.4444 52.6806
2139 1 3.00566 29.3067 50.7748
465 1 6.02813 29.7148 50.9288
7350 1 4.76763 27.9949 52.3711
1657 1 3.47737 31.6985 50.4575
5353 1 8.0147 28.8811 51.0505
3803 1 7.72585 31.8122 50.7079
64 1 9.78018 30.7853 51.6418
7257 1 8.2283 28.7103 53.333
1019 1 10.8464 31.3448 53.9076
697 1 14.7195 28.9578 52.792
4071 1 13.4716 27.8483 50.8222
2859 1 11.217 29.0138 50.3787
6066 1 11.5481 28.9545 52.6768
3082 1 13.3155 30.1873 51.5085
3324 1 19.7638 35.8944 51.6113
2367 1 13.9506 35.2489 53.393
4880 1 22.0788 31.9429 53.6537
5323 1 19.6019 31.8626 52.9336
2443 1 18.3607 29.2496 49.7424
6306 1 17.6078 30.1432 52.2283
7997 1 15.5427 31.0424 51.701
2055 1 19.4336 31.0929 50.3677
6944 1 19.4771 28.582 51.8104
7820 1 21.5736 31.5634 51.0718
3988 1 29.4231 12.6707 53.7423
4619 1 22.5434 29.5293 50.9416
543 1 24.5719 30.9437 50.4242
3479 1 16.4242 8.39518 35.8647
5886 1 16.8584 0.22227 49.7079
1025 1 26.7704 29.8997 52.6116
6926 1 24.091 31.2058 52.597
6633 1 25.3521 28.7301 51.1611
1026 1 26.6214 30.5909 49.5005
631 1 28.313 31.4251 52.0647
613 1 28.8561 31.4733 49.8459
7891 1 30.7473 0.582766 36.0521
5743 1 28.364 28.9846 50.098
368 1 28.8092 28.5758 52.7496
5172 1 30.3638 29.9598 51.7534
7341 1 32.9966 28.3109 51.5001
1319 1 35.0567 30.3363 51.9657
7573 1 34.543 26.3793 52.0572
6542 1 32.5952 30.8361 53.9238
4209 1 32.1244 33.1545 51.4241
712 1 32.951 30.6203 50.966
3174 1 18.817 35.6746 49.2668
633 1 2.15966 34.5309 52.1715
1869 1 0.0305802 35.4552 52.9013
779 1 0.0756315 33.2026 52.4047
6700 1 2.08889 36.0614 49.2672
3665 1 0.776946 31.9297 49.8218
3412 1 1.66768 31.212 52.0072
6137 1 4.11311 35.3766 52.7941
3177 1 5.78245 31.8934 51.8799
5671 1 3.06798 34.0692 50.2511
136 1 3.6782 32.8424 52.3014
5258 1 33.9832 5.69857 53.6317
7426 1 5.50955 34.2872 50.7919
4543 1 11.8605 5.69345 53.3618
7664 1 8.09668 31.9456 52.9858
5962 1 7.39355 34.3025 49.4684
4376 1 9.74241 33.6887 52.6652
1740 1 11.5851 32.2481 50.9046
5113 1 9.65372 33.4933 50.0741
5348 1 7.55485 33.8839 51.7083
6610 1 13.5116 31.9633 49.4728
5648 1 13.1455 34.2541 51.3229
3740 1 15.156 33.3219 50.9081
3888 1 15.1812 35.7013 50.7438
3175 1 10.7904 35.6793 50.8841
3015 1 20.8887 20.853 53.1193
4869 1 17.1143 12.4411 53.1117
316 1 16.0312 20.8283 53.3484
7501 1 8.68648 10.807 53.5348
5086 1 0.149413 30.3254 53.7168
5342 1 32.6886 26.0621 53.1376
3506 1 17.032 23.0383 53.865
1958 1 9.31414 18.2639 53.9149
2065 1 14.7594 33.1804 53.9143
2868 1 9.66398 8.55586 53.5867
1888 1 12.6796 0.927066 53.0942
5275 1 18.884 15.0395 53.6793
3504 1 8.05523 12.9614 53.4267
7487 1 20.9526 29.8371 52.956
5598 1 26.3967 27.4795 52.9389
7500 1 1.84352 10.6756 53.8932
6392 1 5.61967 33.609 53.5386
7095 1 11.5136 10.6265 53.3711
217 1 4.06559 6.45325 54.4319
1169 1 9.21044 20.5999 54.1258
4758 1 10.1583 27.1776 53.9499
6048 1 19.0923 0.816913 35.9073
2591 1 23.7574 14.2299 35.8512
4524 1 24.2603 16.3152 35.8925
3989 1 16.9766 13.8119 35.8183
444 1 6.3588 26.2113 35.7001
7973 1 30.3226 24.936 35.8942
6845 1 7.66741 20.2422 35.9819
4527 1 14.88 23.2393 35.7063
1325 1 0.528685 2.55438 55.1953
4305 1 1.85287 2.1784 57.3248
1802 1 3.41479 35.9341 55.2614
7520 1 4.3313 1.18154 56.3136
6135 1 1.64511 0.452274 55.1677
4779 1 1.93763 35.9973 56.9971
1422 1 0.479105 34.7259 59.5276
4783 1 0.957241 0.523541 58.9474
1262 1 6.93929 0.302924 56.7743
1246 1 2.89957 3.14013 55.5918
6949 1 5.59938 36.0007 54.917
1173 1 5.15196 3.44637 55.5703
7728 1 4.3838 35.2014 57.1708
3916 1 3.9223 0.419073 58.4359
3745 1 6.49848 1.22509 54.0459
4624 1 8.54632 0.063383 55.2751
7514 1 10.727 1.01521 54.6573
1499 1 10.5724 0.230905 57.0226
874 1 8.51326 -0.14724 58.4271
1176 1 8.64535 2.28661 58.2928
2452 1 10.7169 2.47489 57.618
7582 1 6.78188 2.55058 56.521
6868 1 9.45194 2.9816 56.0232
5424 1 11.1042 13.4888 53.9629
859 1 14.3452 3.16175 57.2354
700 1 11.8442 3.21293 55.5138
5565 1 16.2256 1.47855 56.3626
3410 1 12.6164 35.9988 55.1771
3339 1 13.0651 1.1689 56.3519
3173 1 10.0136 3.87504 53.7671
3600 1 19.5392 3.21081 56.6231
4208 1 17.7874 1.28326 58.116
1571 1 16.6368 3.66992 55.5565
4298 1 18.8261 0.495178 56.4414
2316 1 18.7134 35.9199 58.9695
5492 1 18.3976 2.36316 54.9458
1163 1 22.6105 0.804038 56.0039
3573 1 20.7756 -0.00107431 57.6442
6154 1 21.9393 3.72933 56.0117
7483 1 8.98814 25.065 54.8092
6858 1 23.3051 -0.0869018 58.2344
7249 1 20.9848 1.90561 55.0461
3254 1 25.178 0.712175 56.8914
4863 1 26.8264 0.258077 58.9504
4445 1 27.836 1.35651 56.8453
2936 1 26.0538 2.79349 57.8352
1007 1 25.6712 2.35281 55.1498
4946 1 3.54446 17.5722 54.0084
4710 1 30.3857 1.43131 55.9463
1264 1 29.0562 -0.31578 57.672
1185 1 31.0795 4.32646 55.6971
6456 1 31.7315 3.04075 58.1366
5040 1 29.4449 2.77638 57.5363
549 1 33.8294 1.5427 58.6895
7583 1 -0.244298 1.00605 56.9177
618 1 32.6577 2.65447 56.0184
460 1 33.2803 0.470316 56.1406
1568 1 34.5659 3.63646 60.4814
2632 1 27.5589 29.8017 54.9749
4459 1 2.29452 4.88968 57.8953
4620 1 3.63767 5.59342 56.2375
1803 1 23.5401 2.83411 54.5552
6718 1 1.1137 5.33987 55.473
6070 1 0.0771985 6.58447 58.9366
7035 1 3.14328 7.40392 58.8159
1501 1 4.72952 5.48805 58.8418
6793 1 6.24544 5.23049 56.5516
1032 1 5.03447 7.48012 57.3979
530 1 7.8125 3.32139 54.4465
6635 1 6.43337 5.34825 53.8942
1517 1 8.40095 5.47292 55.4049
1431 1 11.1418 5.15129 56.5558
6450 1 8.97812 4.71149 57.7071
2463 1 24.8245 33.0915 54.4154
862 1 12.8717 6.7048 55.2092
215 1 12.3757 4.38822 58.7433
7252 1 13.7639 4.46215 55.431
2060 1 15.7883 5.821 54.8749
3345 1 16.1406 5.78348 57.1116
5003 1 13.7897 5.49942 57.5383
7979 1 17.5052 3.83743 57.5896
4687 1 18.2499 5.43807 55.7093
6300 1 19.3789 5.40526 58.1743
6043 1 20.0874 6.83584 55.5417
7596 1 17.9115 7.18961 57.1871
1012 1 33.5805 20.2314 54.3376
6852 1 20.3382 4.41429 54.429
3417 1 10.5073 22.7608 53.6472
936 1 23.6735 4.79299 57.6795
7899 1 22.1343 6.26935 56.3252
3657 1 24.2319 7.23065 54.7081
2955 1 23.2737 7.27356 58.6937
4151 1 24.9566 6.85298 56.7836
4377 1 24.3626 4.83494 55.4376
3406 1 26.0638 4.91908 57.002
6639 1 27.0994 6.84 57.5332
7358 1 28.9892 6.12331 54.4669
3099 1 25.3356 5.64186 59.1909
5343 1 30.696 5.25816 58.7548
213 1 31.1936 6.7292 56.6088
6856 1 31.5807 6.09279 54.3401
4867 1 29.1299 5.09307 56.6056
2951 1 29.3589 7.09697 58.4839
317 1 34.8213 3.30062 56.6721
7740 1 33.9135 7.91823 54.925
4136 1 33.0935 4.61525 58.1006
5110 1 33.2664 5.19493 55.9231
7578 1 34.9028 8.8012 58.466
2952 1 35.7712 5.15069 56.9757
1492 1 3.44391 24.0993 54.4869
5906 1 3.39711 9.38611 57.4121
7669 1 1.62465 9.72676 56.0093
160 1 2.12234 7.38167 56.545
1343 1 3.8306 8.90898 55.0835
6707 1 0.963977 8.72269 58.399
4859 1 7.95595 9.89701 57.4355
4287 1 8.09337 9.00561 55.1493
711 1 7.21949 11.3653 55.2394
238 1 7.38624 7.61451 57.2693
6873 1 5.56144 9.71111 56.4281
3508 1 6.1822 7.23441 55.2315
2467 1 10.1142 9.30938 56.1828
4784 1 12.0267 7.4091 57.5589
2545 1 10.3385 6.79074 55.1495
3001 1 11.0324 11.2451 57.544
6704 1 10.1113 9.16912 58.738
7434 1 15.4578 30.734 54.1905
3358 1 9.47867 7.11533 57.4632
5820 1 14.219 10.8453 56.6102
3199 1 12.421 9.25996 55.6421
5827 1 16.1122 8.38578 58.1073
2849 1 14.4068 7.82772 56.6877
2211 1 12.5599 12.0389 55.1457
2606 1 15.2961 11.3773 54.6089
3006 1 15.9038 9.10001 55.481
1109 1 18.1097 10.8502 54.871
1498 1 16.6632 10.6233 57.1612
3490 1 19.6708 9.08948 54.3558
3741 1 18.605 9.32759 56.792
3414 1 20.9323 8.90982 56.6051
2790 1 23.2274 9.16823 56.8589
3996 1 21.5772 10.851 58.6613
3733 1 23.9121 9.70843 54.5401
5260 1 23.6462 9.70722 59.0904
4237 1 19.6865 7.68104 58.4978
2941 1 21.6128 10.2917 54.3471
6775 1 22.6979 11.2813 56.481
6069 1 36.2331 6.58088 54.0441
1257 1 26.5392 6.26107 54.6034
5562 1 26.1693 10.2167 54.6706
558 1 27.7693 11.457 55.708
790 1 26.6225 8.19185 55.7279
627 1 27.5716 9.10777 57.6548
474 1 24.3811 12.2176 58.0229
7348 1 25.3175 10.2571 56.8579
4228 1 28.9993 7.7187 55.9342
4770 1 31.4736 8.8828 55.4984
4613 1 29.3837 9.76344 56.1106
4215 1 16.3512 27.9695 54.2101
1428 1 -0.282589 7.80908 56.0526
5354 1 30.679 8.79801 57.8334
2393 1 35.7219 9.92683 56.8065
4295 1 21.6451 24.6056 53.8907
7571 1 35.5093 4.07745 53.8621
1653 1 0.740867 11.9784 55.9943
6320 1 1.89183 11.4205 58.5973
3124 1 2.17988 12.9728 54.7414
617 1 -0.428233 13.0631 57.7268
5908 1 3.24776 12.8022 56.9866
5992 1 8.39203 28.0974 56.3427
1916 1 1.7293 14.7164 56.7703
7279 1 3.96796 11.3239 55.4119
3342 1 16.2845 25.1559 55.6952
6399 1 4.6882 13.207 54.5335
2140 1 6.01308 12.2795 57.1518
7677 1 6.8431 13.7388 55.1547
1899 1 8.65077 12.5531 57.2243
7971 1 9.76697 11.8729 55.3116
70 1 9.02216 14.0523 55.5061
705 1 29.5306 21.705 54.3313
1666 1 11.0702 13.8154 56.3861
3967 1 9.59837 15.0625 57.6955
446 1 13.3296 12.7684 57.4848
43 1 35.4161 18.5955 55.3924
6234 1 12.3085 17.2165 55.6036
2069 1 12.9317 14.9034 54.7633
5519 1 26.7483 0.481968 54.024
3654 1 15.2619 16.2938 55.0854
5347 1 15.1378 13.3895 55.7313
1272 1 17.4735 12.971 55.4532
4930 1 18.3823 20.7163 54.3747
7242 1 31.6916 35.4323 54.3326
6382 1 20.3594 11.5541 55.9998
1417 1 21.9268 13.841 56.4015
2607 1 22.4165 12.594 54.1503
7738 1 19.8562 13.5211 54.8483
6857 1 19.641 14.4517 56.9454
7119 1 26.1417 15.1297 55.4394
388 1 24.8166 12.0964 55.6089
4311 1 28.2262 14.005 55.2123
4547 1 27.9865 16.4287 54.5659
1566 1 24.5014 14.5038 57.2018
717 1 26.457 12.9659 57.0331
5421 1 30.21 12.0394 56.0212
7248 1 32.4573 12.734 54.5903
1410 1 28.7494 13.3431 57.6993
4391 1 31.8033 13.2503 57.9212
3002 1 30.6841 14.198 55.8243
7016 1 33.3223 10.7592 56.1153
6141 1 33.4275 14.1842 56.2637
5419 1 0.0218892 14.1506 54.8575
5186 1 -0.27457 10.8233 58.6851
2783 1 34.9932 12.5478 55.2643
5902 1 32.2077 15.2855 54.563
4864 1 35.7028 15.2538 56.8826
400 1 3.5006 16.1758 56.281
1196 1 0.0672378 17.1802 55.8983
5100 1 2.45893 18.5153 56.7633
2957 1 1.47644 16.9842 58.0411
1347 1 0.20692 19.1915 57.501
5495 1 0.358904 19.9682 54.8559
7326 1 14.5118 2.4325 54.6898
6463 1 32.7616 32.9552 68.5234
3987 1 4.84255 14.4029 56.7438
7424 1 6.07851 18.3833 54.5754
1323 1 4.34522 19.9606 56.5136
45 1 5.44866 18.0423 56.7635
1116 1 5.29119 15.9088 54.8065
7918 1 32.4976 32.4811 72.1838
3593 1 7.47522 16.4776 55.2799
7011 1 9.79296 16.3223 55.5533
1913 1 8.27557 18.9119 55.8565
6385 1 7.14946 15.4505 57.7551
1175 1 11.5615 20.8054 54.9861
4312 1 7.57521 17.6901 57.4848
3494 1 10.446 18.9088 55.8652
6222 1 10.1078 17.6498 57.8811
5169 1 17.6991 7.73042 54.5888
1663 1 14.5908 18.6673 56.3162
5120 1 14.284 16.7068 57.1454
3176 1 16.1403 20.7921 58.4164
7338 1 34.5701 34.9461 68.2748
804 1 7.28899 -0.685394 71.8342
6377 1 17.8247 15.4275 55.7633
4531 1 17.044 18.9079 54.8005
7085 1 18.5539 17.8804 56.3254
5726 1 18.8066 16.3452 58.2386
5013 1 30.1666 29.8942 54.3272
2236 1 21.7265 14.9278 54.2253
3820 1 20.685 18.9899 54.7693
7816 1 22.4966 16.6896 56.5988
6474 1 20.3665 16.5224 55.8094
1595 1 22.8513 18.9904 56.8125
7421 1 22.9215 17.4989 54.4542
5999 1 34.4456 32.4828 70.3499
3647 1 23.7937 14.6484 55.0207
4724 1 21.4706 32.3049 71.3605
5277 1 23.0063 19.9393 54.5498
7088 1 27.6534 17.8331 56.8178
3834 1 24.4365 17.3559 56.0566
5485 1 29.1446 15.8529 56.7087
4634 1 31.3136 16.4391 56.6015
6076 1 35.079 22.5087 54.7896
1021 1 30.7052 18.7067 60.0264
525 1 29.8689 17.8783 55.3231
7829 1 35.166 16.0826 54.7187
1983 1 33.3787 16.5594 56.1337
6211 1 32.523 15.5671 58.2542
5983 1 32.172 18.0841 55.0023
1322 1 34.7114 17.6391 57.867
6466 1 33.203 19.6361 56.6476
5840 1 1.47605 21.197 56.683
4856 1 3.29236 22.1988 55.6427
7121 1 1.01116 22.5526 55.1035
1280 1 1.6933 22.9219 58.2911
6302 1 -0.357134 21.793 58.8342
1093 1 16.2067 14.4452 53.8839
1680 1 7.14094 20.4042 57.1704
1989 1 6.77842 20.9634 54.2273
2076 1 3.88548 24.6638 56.6686
7805 1 2.54264 20.0556 54.7139
1261 1 5.79192 22.3304 56.0759
4641 1 1.37503 8.06896 54.1924
1105 1 9.12124 21.8635 56.016
1181 1 8.04141 21.7513 59.0035
1013 1 11.1157 21.7167 57.144
1894 1 9.4159 19.8842 57.6099
2066 1 12.4757 18.9184 54.0112
1342 1 12.6054 23.0444 55.694
7665 1 12.3413 19.7258 57.0966
4217 1 13.8883 20.4075 55.1952
4850 1 13.9758 21.5435 57.3638
3668 1 16.4223 20.8908 55.839
4689 1 18.81 17.5292 54.0852
1510 1 14.7307 22.575 55.07
397 1 16.3911 23.0878 57.4068
3348 1 18.3326 22.4611 55.7869
3178 1 20.5086 23.9535 56.0746
7345 1 22.0267 22.5216 54.8999
1980 1 20.3275 21.0332 56.3168
4366 1 21.0623 20.0543 58.244
3009 1 22.638 21.2738 56.9565
4464 1 22.7488 23.7553 56.8023
1672 1 26.3821 18.4909 54.5939
6313 1 24.5063 21.473 55.649
4466 1 26.9221 21.5106 57.8333
7173 1 7.55697 23.1536 54.0942
7192 1 28.2442 23.7337 57.2077
7826 1 30.1624 18.2673 57.6476
6235 1 28.2015 19.9546 58.646
2220 1 29.2905 21.5392 57.2964
622 1 28.7944 19.756 56.137
386 1 30.1071 23.5037 55.6372
7266 1 31.2512 22.5567 57.9368
7988 1 27.1314 21.3922 55.4715
2074 1 31.1747 20.0321 55.6308
1271 1 31.1988 20.121 57.8761
7570 1 33.6901 23.0532 56.5674
5588 1 35.3881 20.8217 56.2687
7890 1 33.2942 21.5105 58.3683
7002 1 31.8952 22.052 55.244
4626 1 36.1569 24.8023 55.1295
5018 1 -0.263464 23.3491 57.1875
385 1 -0.0963515 26.0451 56.9827
1407 1 1.72534 24.2156 56.1628
3253 1 1.86538 26.4666 55.3706
7835 1 3.59614 27.0787 58.0815
3432 1 5.96832 24.5409 54.9786
557 1 5.11779 26.6068 59.9003
5022 1 6.08946 22.7419 58.5335
6685 1 4.38273 26.2935 54.7664
7674 1 5.801 25.4448 57.7009
7981 1 7.18397 26.4115 55.5523
3809 1 7.67971 23.6453 56.356
939 1 10.413 23.7445 56.1693
1486 1 8.36918 25.6785 57.9403
6547 1 9.39186 23.4707 58.1524
3018 1 10.7467 25.7916 57.9125
3117 1 12.5229 34.2854 71.6482
1572 1 12.6506 27.9704 54.559
5582 1 12.5087 23.9408 57.8165
1360 1 1.80816 16.0092 54.9259
1725 1 14.066 24.8745 54.55
4715 1 13.9106 27.657 57.887
7280 1 12.4959 25.9241 56.5505
5916 1 14.411 24.3297 56.831
7676 1 14.7182 27.1005 55.788
7886 1 22.0394 7.99042 54.7116
4963 1 25.6504 2.934 71.4987
5973 1 18.8629 24.9848 54.5001
2304 1 18.2478 24.7468 56.9837
6142 1 16.2587 27.0582 57.7054
4152 1 17.8875 27.3165 56.341
1747 1 18.6042 22.7538 58.1404
964 1 7.43762 7.27308 71.5473
7750 1 12.696 30.5706 54.5788
5270 1 20.3936 26.3298 56.0713
4379 1 22.7848 25.8884 57.0834
2950 1 22.0985 27.3404 54.8726
4781 1 23.6024 25.1042 55.0215
5511 1 24.1567 27.2332 55.7284
3188 1 25.5512 23.5698 55.5013
1749 1 27.6082 26.0311 57.1968
2068 1 26.2885 26.1717 55.0876
548 1 25.7007 24.1934 57.6811
2324 1 10.6639 32.6022 71.9053
4947 1 28.3974 27.1358 55.2392
221 1 28.0275 24.6155 55.084
5417 1 30.4066 28.1509 56.5841
4701 1 30.1914 25.5927 54.7179
7490 1 29.9206 25.8251 57.0593
1889 1 31.8883 26.886 58.1955
4926 1 32.5719 24.0487 58.3693
6292 1 34.0768 25.6723 56.9349
3565 1 31.9437 24.5775 56.0887
7920 1 32.2677 26.982 55.6225
2289 1 33.8463 24.4029 54.4584
369 1 2.22805 29.0216 56.6318
5733 1 3.24764 31.3516 57.0957
1824 1 0.608973 28.5518 54.9746
7495 1 0.50569 31.0936 56.7246
3901 1 24.1997 0.693801 54.2467
3088 1 3.39443 28.4386 54.4691
62 1 4.9859 27.788 56.2265
4066 1 6.5096 29.8263 56.3809
1896 1 32.7788 34.6065 70.1311
6296 1 10.4311 29.3579 54.7867
6706 1 10.734 27.3546 56.1582
1586 1 9.37771 27.9581 58.5712
7746 1 8.2671 30.2769 54.938
7574 1 6.32153 27.7454 58.1123
1660 1 9.91545 29.9036 57.1458
2553 1 12.3527 30.3809 58.8361
3984 1 14.5397 29.2074 55.6338
4222 1 12.1913 29.499 56.6194
3581 1 14.413 30.8376 57.5618
3972 1 13.4287 32.338 55.827
7405 1 16.1926 32.1739 56.3168
4457 1 15.5783 29.1627 58.8409
5828 1 18.203 29.1979 58.2595
4612 1 16.6613 30.0888 56.0231
3356 1 17.3726 32.4986 54.4063
3035 1 18.6711 31.6313 56.25
6878 1 28.6674 17.8459 71.9238
7117 1 20.5497 31.1559 55.1928
2947 1 28.7301 1.64115 54.0957
4720 1 20.9112 30.3225 57.6415
4717 1 19.7776 28.8653 55.8312
873 1 22.2529 29.8031 55.6441
399 1 21.0011 32.7887 57.0695
7187 1 23.0418 31.5605 56.8478
6792 1 25.478 26.5965 57.8688
1737 1 24.5692 29.6092 54.9528
5727 1 26.0727 28.512 56.5182
1179 1 27.641 30.3968 57.3151
7347 1 25.1218 30.6307 57.7732
6709 1 31.8531 29.1426 58.1667
4155 1 32.2534 29.4196 55.4955
3653 1 30.4622 30.9304 56.6801
3662 1 28.3089 27.9899 57.6702
223 1 22.3436 5.539 54.0409
6710 1 32.2103 1.24398 53.8373
3172 1 35.1262 26.8408 54.8884
3482 1 35.116 30.2929 55.3599
922 1 -0.0698033 28.4995 57.3562
1520 1 32.7151 31.2058 57.1133
3419 1 33.9786 28.1354 56.7066
6401 1 30.9833 34.3407 71.8287
150 1 1.61306 34.8927 54.604
3651 1 2.952 32.4994 54.546
5034 1 1.88571 32.7584 58.3405
2206 1 0.412552 32.7541 54.7131
4133 1 2.67353 33.7425 56.2544
7180 1 0.264038 34.2486 56.965
379 1 7.53643 34.458 54.184
7262 1 4.53479 30.7161 55.2439
3889 1 5.83305 31.443 57.7727
7893 1 6.66665 34.5463 56.8171
4939 1 4.68094 33.1564 55.8127
6789 1 8.80023 34.5649 57.2765
2866 1 10.1828 35.1492 55.0749
4944 1 11.2048 31.9107 56.7891
2045 1 9.32142 32.9942 55.3083
6386 1 11.6572 34.3705 56.6789
535 1 6.77125 32.2063 55.1565
1589 1 8.17212 32.1841 57.492
4471 1 11.6342 33.5718 54.2505
3832 1 13.2511 32.9457 57.9508
3752 1 15.1403 34.5965 55.9087
4315 1 16.1009 35.7946 59.2697
1118 1 13.8208 35.7212 57.4678
5893 1 34.8015 1.85223 54.4098
7662 1 14.9297 0.019143 55.3225
2705 1 17.4588 34.463 55.3544
7274 1 15.5073 33.6416 58.4433
7276 1 17.9691 33.4586 57.7131
6854 1 16.8279 35.9399 57.0797
3816 1 19.2211 34.8908 56.9288
1977 1 22.1914 35.1944 56.6538
393 1 19.7546 33.3358 54.9201
5253 1 22.6625 33.402 55.5071
884 1 7.63724 3.27773 72.0727
2142 1 21.4222 -0.225977 54.1702
1352 1 23.0028 33.7077 58.306
4542 1 24.6788 33.2288 56.8951
3584 1 24.832 35.5052 55.9263
2641 1 27.3147 33.5462 56.3619
1027 1 26.0641 31.5277 55.8411
461 1 27.4678 35.8196 56.0369
6229 1 25.1556 35.1454 58.6803
6481 1 30.7503 0.941353 71.751
3992 1 31.2662 32.811 55.4534
5006 1 28.6561 32.0303 54.9516
6940 1 31.4239 35.8801 56.576
6863 1 29.7801 34.3626 56.0377
6708 1 33.7779 32.3869 55.2261
6213 1 30.2791 34.416 58.1537
6958 1 3.12726 21.2836 71.9433
3491 1 34.6152 35.6372 57.4643
2058 1 32.5198 33.4126 57.432
2464 1 33.3548 34.5858 55.7009
2778 1 35.3671 32.5603 56.7639
5761 1 26.7591 5.06877 72.0213
1503 1 -0.680708 36.2502 55.3425
5512 1 -0.826968 2.39824 58.5742
2399 1 4.41106 3.09629 57.5799
7595 1 0.257369 2.25688 63.3178
6080 1 1.86166 2.82169 59.5169
5524 1 2.59458 0.876364 60.7433
5430 1 0.389935 2.81797 61.2024
1409 1 2.63104 3.01773 62.8221
7512 1 0.301119 -0.420324 61.3616
7519 1 5.30345 2.80395 61.8638
7819 1 4.9647 0.59044 60.84
6697 1 4.27969 2.6048 59.8959
5096 1 6.28569 1.79614 58.6986
1191 1 7.56828 -0.0134613 60.6798
1114 1 3.7504 0.774 62.8246
146 1 7.54361 2.00345 62.867
5814 1 4.89813 2.64556 64.0145
3722 1 9.83529 1.95152 62.2688
6316 1 10.048 0.591402 60.0037
6004 1 12.312 1.42295 61.3826
5503 1 12.1749 3.53229 62.4917
5119 1 7.96272 2.68592 60.655
1917 1 12.4451 0.92891 58.6493
2875 1 15.8851 -0.02984 62.6296
6288 1 13.7184 34.6668 59.9165
2845 1 14.3003 0.340499 60.5716
4145 1 15.2985 0.801422 58.1405
2533 1 13.5814 2.70637 60.0814
4307 1 15.9765 2.62447 62.1801
7497 1 19.1602 1.25662 60.0621
3030 1 16.6946 1.21163 60.1596
3085 1 18.1399 3.53663 62.0184
7270 1 18.6077 0.867227 62.3818
3110 1 19.3474 3.86939 64.3237
2793 1 21.0329 2.32909 58.2793
2861 1 21.3754 2.61379 61.3483
7356 1 20.3187 35.7818 61.029
6448 1 21.6159 0.503052 59.6855
5901 1 23.4974 2.2314 57.9267
6797 1 19.3782 35.3762 62.9881
2529 1 21.0825 0.770108 62.5723
5837 1 23.6115 1.84083 61.751
396 1 24.9762 1.37525 59.6566
6472 1 26.9181 2.43249 59.8514
1914 1 27.2675 3.03862 62.2666
156 1 25.6902 1.15213 62.3574
4860 1 25.137 3.55335 60.716
1113 1 26.4225 35.5384 61.4592
6217 1 29.1574 3.40282 60.3949
5885 1 28.9488 1.44179 59.3056
6049 1 27.9168 0.738282 61.5088
2480 1 30.6999 1.31095 61.2705
2223 1 29.1317 1.71005 63.1231
319 1 30.0749 35.9208 62.3737
3920 1 31.0895 0.781494 58.4759
5356 1 32.5036 2.27755 60.4313
1357 1 34.6538 1.56972 61.4777
6716 1 34.9924 2.92673 64.1103
1518 1 32.1453 0.47146 62.6644
5434 1 33.2207 -0.168141 60.6519
3833 1 35.079 -0.192526 62.9976
4541 1 35.4296 -0.37399 59.6716
5585 1 2.28878 6.84723 62.6723
157 1 -0.156715 4.49029 59.461
3751 1 3.9568 4.99656 62.5743
5673 1 1.34708 4.95926 61.5342
7431 1 3.27245 4.69767 60.0714
641 1 5.90351 7.52635 59.5492
869 1 5.78765 5.0338 60.8179
1664 1 5.54585 7.05586 63.333
1502 1 4.5942 7.0823 61.2137
1256 1 6.46907 4.14442 58.5688
3017 1 10.2083 4.79094 62.3139
4158 1 10.2182 3.27109 60.2857
2953 1 11.9767 5.5136 60.9364
7091 1 9.02387 6.50618 62.8997
3497 1 8.48482 5.11941 60.7602
4306 1 7.70384 6.37144 59.0921
2707 1 16.0976 3.39036 59.4809
5278 1 10.2751 5.85102 59.1472
1178 1 14.1506 4.54673 61.6454
3274 1 15.0657 5.41705 59.543
1656 1 13.995 6.79086 61.8696
7427 1 16.6111 5.31589 61.2759
3514 1 15.8282 7.81106 60.6936
4711 1 17.4117 6.29912 59.1348
6286 1 18.4495 3.93063 59.745
3340 1 17.7497 7.94964 62.1333
2465 1 20.2603 4.74727 61.207
2613 1 19.2751 6.70113 60.405
7018 1 18.684 5.65837 62.8077
7885 1 22.7057 3.6393 59.7146
3346 1 21.5797 5.57305 58.9176
1758 1 23.3921 5.82224 60.8043
4296 1 21.1742 6.95683 61.7727
4956 1 23.3586 7.11763 62.6008
3195 1 19.6836 7.86863 63.5089
5583 1 22.8235 4.16881 62.4927
7166 1 26.8986 5.14724 60.8797
6717 1 27.8099 4.74462 58.6071
1267 1 27.683 7.29271 62.3282
6073 1 25.3517 6.72712 61.603
3746 1 27.4856 7.27177 60.0088
1190 1 24.9711 4.66426 62.8199
4952 1 30.6821 3.38129 62.8086
4139 1 32.0649 4.75907 60.84
6702 1 29.4153 6.35512 60.9281
2303 1 30.9341 8.10747 60.6518
7915 1 32.1881 7.02799 58.8217
6634 1 28.6797 4.81078 62.8659
4075 1 30.7499 6.06372 62.8845
7432 1 35.6298 4.33434 62.5057
7909 1 33.0697 2.57152 62.8614
5350 1 34.2485 7.03781 57.227
3040 1 32.5656 4.81546 63.3915
6783 1 34.5631 6.29396 59.3829
6628 1 33.838 8.03479 60.8515
1189 1 36.1498 6.33991 61.6879
235 1 3.36318 9.02429 62.7173
554 1 1.98765 8.53987 60.8294
7594 1 0.346606 8.56825 62.7244
693 1 3.79082 11.8653 60.9848
2853 1 35.898 10.8072 62.5055
205 1 7.08755 6.9412 61.7954
2230 1 5.91638 9.24422 61.3419
3597 1 3.83499 9.44899 60.119
4054 1 5.95311 9.51214 58.6726
2872 1 8.17584 10.8129 61.6012
2854 1 8.54998 8.83602 63.3077
3680 1 11.7589 7.95571 60.234
7834 1 7.94829 8.71291 59.7965
53 1 9.46789 7.32554 60.8597
1578 1 10.2788 9.55978 61.6894
6525 1 11.7037 11.2137 62.1784
3189 1 13.5474 9.20445 61.019
4479 1 13.657 7.24969 59.1563
1120 1 13.9807 10.865 62.3409
467 1 15.405 10.1517 59.5075
5573 1 12.5943 9.46511 58.3921
6400 1 17.8032 9.13029 59.7512
5920 1 16.6396 10.1251 61.5207
7992 1 19.4377 9.49057 61.3237
7657 1 20.2642 11.1856 63.0779
5193 1 17.6617 11.8843 59.9446
3196 1 19.5942 10.481 59.3894
6866 1 21.3091 8.66487 59.9721
3263 1 20.2132 12.1078 60.7925
2789 1 22.561 11.0596 60.7931
5736 1 23.7029 10.92 62.8307
956 1 21.6444 9.63896 62.475
68 1 24.0984 8.74478 61.2873
3513 1 25.2796 8.31005 58.758
4384 1 26.9234 9.48433 60.8432
5498 1 26.7003 11.1107 62.8763
5516 1 26.5084 11.1079 58.6753
5518 1 25.731 9.03804 62.7459
6063 1 24.8314 10.9944 60.7632
4400 1 28.0104 11.6283 60.3001
6800 1 32.1525 8.16813 62.6257
7726 1 31.5403 10.8723 57.4529
6640 1 28.9954 9.35407 59.9388
5344 1 31.1334 10.117 63.2097
1840 1 32.4941 9.512 59.4695
6769 1 29.1776 8.96444 62.3455
6471 1 30.3051 10.7405 60.9647
620 1 32.9216 8.64238 57.1718
856 1 34.6023 10.669 59.8079
5993 1 36.1822 9.10682 60.8193
5982 1 33.7788 5.86466 61.9058
4388 1 34.7846 8.39994 62.6425
3034 1 34.9326 7.87223 65.0339
2858 1 -0.0653768 13.5952 62.1247
2792 1 1.7166 15.2458 61.6633
2785 1 35.8272 12.7945 60.3057
6690 1 0.889894 10.7647 60.6005
626 1 2.39159 12.9413 62.8946
7745 1 1.45418 13.3206 60.3696
5831 1 0.33344 15.0044 58.8873
6928 1 4.28439 11.1442 58.5421
1982 1 6.3344 11.8601 59.7526
6644 1 5.23169 13.8679 61.252
475 1 4.1297 13.5302 59.06
4866 1 6.89812 14.4586 59.866
5647 1 6.86406 16.1185 61.8239
139 1 7.58989 13.4717 61.4802
1106 1 8.72647 11.0841 59.4003
4134 1 9.82956 12.5255 61.9475
3571 1 10.9701 11.2862 60.0744
942 1 11.8773 13.4696 63.3618
5674 1 9.43778 15.1143 61.2869
5101 1 12.0651 13.6592 61.1149
5836 1 9.56569 13.4186 59.4721
3416 1 14.4543 14.4685 58.0452
4958 1 13.6876 11.6732 60.2326
463 1 11.7519 13.7092 58.9366
384 1 15.6439 12.4432 61.0213
3675 1 16.7683 13.5467 62.7557
4072 1 14.066 14.1287 60.3674
1187 1 13.2532 16.2525 61.2505
4309 1 15.6825 12.4559 58.5763
5030 1 17.4419 14.2796 57.8397
1907 1 18.6139 12.2778 57.5059
4691 1 21.0333 15.2827 58.6849
2621 1 18.2044 11.8006 62.3222
6467 1 19.5146 13.4713 62.5032
227 1 18.8429 14.1672 60.1639
1575 1 22.8946 14.026 58.8917
4225 1 20.5746 12.9229 58.6332
2458 1 23.4621 13.0218 60.6355
3596 1 21.3663 14.738 60.9053
4067 1 23.5999 14.7789 63.0015
2379 1 21.989 12.5147 62.4964
4941 1 25.2787 12.9326 63.9662
7415 1 24.2908 16.5001 58.6159
6458 1 26.2818 13.4617 61.489
6480 1 25.31 13.9892 59.3401
6541 1 24.0477 15.6749 60.9783
6310 1 26.3026 16.1975 60.3126
2396 1 28.9365 11.03 58.2003
6231 1 30.3231 14.9038 58.5288
6387 1 28.0697 14.6775 59.469
1915 1 31.1092 13.0972 61.8842
1338 1 30.0662 12.6292 59.4953
6132 1 28.7518 13.4523 61.734
1978 1 33.822 11.9487 57.8462
6227 1 34.3812 14.6544 61.5681
5510 1 32.244 14.2832 60.2157
1269 1 34.5163 14.1097 58.8926
6632 1 33.7148 12.5097 62.4845
4633 1 32.2355 11.8621 60.1691
4873 1 33.4572 10.1808 62.0427
7754 1 31.2152 15.2167 62.6881
7175 1 1.82736 17.3152 60.3539
7598 1 35.0594 20.045 59.1206
3326 1 35.8214 19.1736 62.8979
854 1 0.465428 19.2191 60.3975
230 1 35.1039 19.1394 65.2197
2315 1 2.71368 15.1052 59.1817
542 1 3.99818 18.9144 60.8763
7090 1 5.19318 15.8944 58.8312
3268 1 3.96203 16.402 60.9913
4140 1 3.65449 17.949 58.6055
5190 1 5.28781 17.3233 62.8518
5591 1 5.86437 17.5509 59.9766
6237 1 8.48116 16.4995 59.5461
1755 1 10.9575 15.7111 59.766
765 1 12.3877 17.7024 59.2794
7111 1 8.08002 17.9952 61.9655
2156 1 10.134 18.6674 60.1761
2462 1 10.3966 17.7685 62.2486
6158 1 15.5102 15.5617 61.9181
4865 1 11.4051 15.6575 62.455
237 1 14.1108 18.8726 58.7267
1432 1 16.7997 16.6967 57.329
6776 1 12.2282 15.721 57.508
5991 1 15.026 16.2347 59.7181
6226 1 12.7018 18.5545 61.6647
3247 1 17.9305 15.8261 62.6387
394 1 16.6848 14.8105 59.8225
3023 1 17.5211 16.9615 60.3078
7116 1 19.3288 18.9813 59.463
4799 1 19.579 18.535 62.6108
788 1 17.0934 19.6114 62.5484
1908 1 19.8119 16.7582 60.7584
3515 1 16.6288 18.3505 58.5899
858 1 22.3359 17.0909 60.3793
2775 1 23.8185 19.821 58.6285
3334 1 20.7921 17.7664 58.1865
4046 1 21.8371 19.5235 60.2782
3588 1 22.308 19.3086 62.8528
3337 1 26.3391 16.3411 57.2704
926 1 26.2751 18.2445 58.6353
5102 1 26.9225 17.6955 62.69
3806 1 24.7139 18.105 60.4452
3353 1 24.0472 17.5271 62.4788
6613 1 28.6448 17.0484 59.2982
6464 1 25.6874 19.5588 62.7454
539 1 27.9245 19.0462 60.5972
3760 1 30.7396 18.1943 63.9969
7189 1 29.4367 18.4137 62.0967
5976 1 30.2804 15.4156 60.6909
3970 1 32.3358 17.9078 58.2229
7814 1 31.4454 19.7434 62.0518
449 1 -0.411283 17.1956 59.4102
1986 1 36.2621 16.3859 61.2026
7888 1 33.6766 16.3996 60.1415
1188 1 33.9413 16.5833 62.6122
2476 1 32.145 17.7064 61.4829
7344 1 34.6328 18.5076 61.0873
6065 1 34.4702 22.5684 60.2233
1581 1 1.82497 21.2502 60.4414
5813 1 2.28753 19.8874 58.8037
2389 1 -0.461931 20.937 61.3811
7020 1 1.12373 22.4312 62.2885
1562 1 3.94179 21.9763 57.8869
3120 1 4.05702 21.8066 60.4218
4052 1 6.37843 22.0094 60.5864
4523 1 6.33788 19.702 61.5217
2619 1 4.71124 21.102 62.8221
2610 1 5.30201 20.1043 59.0554
7343 1 6.06529 22.5704 62.6588
7191 1 11.2788 20.1406 59.0347
1197 1 7.67989 19.2545 59.4276
5177 1 10.0369 21.6328 60.3108
2307 1 8.41667 22.6463 61.674
7493 1 7.18088 24.3204 59.3237
3749 1 8.99002 19.9923 61.8065
3819 1 15.4729 18.7113 60.6494
7821 1 11.9529 20.6336 61.0843
1734 1 12.7414 21.9272 59.3651
7508 1 14.454 23.055 59.4184
7901 1 14.7169 20.5912 60.0097
4463 1 13.8293 22.188 61.81
1659 1 18.3371 20.2828 57.1972
6876 1 19.216 21.225 59.9588
3103 1 17.3611 19.8943 60.2693
1429 1 18.7565 21.3856 62.0673
2877 1 17.0138 22.3401 59.7947
1254 1 18.6495 24.0419 60.174
1497 1 20.8213 22.3701 58.9411
2383 1 23.024 22.021 60.056
7908 1 21.0438 21.2262 61.4009
3425 1 24.1979 20.1307 61.2089
3097 1 22.3479 22.8761 62.6686
2159 1 24.5705 21.9077 58.138
3341 1 20.7289 23.6263 61.0978
1251 1 25.7679 19.6802 56.6854
2555 1 24.4647 22.8555 61.57
7026 1 26.0959 20.0249 59.5014
5117 1 25.8758 23.1623 63.645
2550 1 26.2068 22.714 59.5821
1519 1 26.9332 23.9474 61.4058
3021 1 30.1252 20.981 60.2274
6791 1 30.1908 24.2307 58.6937
694 1 28.3621 22.3473 59.7199
7027 1 29.5427 23.3803 64.175
3336 1 29.5496 23.7578 61.5573
72 1 26.5613 21.3834 61.7645
3737 1 32.8732 19.7535 60.2638
299 1 33.2639 23.3622 63.313
7040 1 31.9894 22.4449 60.3184
6720 1 33.6596 20.973 61.9629
4622 1 33.1844 18.9334 63.4809
5675 1 35.347 23.4694 62.1073
5667 1 -0.107015 23.3872 64.0014
5664 1 -0.0879556 23.4634 60.0351
229 1 34.8338 24.6094 58.8252
5665 1 2.86958 27.7507 63.2985
3844 1 0.325239 26.06 59.4201
7184 1 0.587438 25.1148 61.7625
3014 1 2.11362 24.1613 60.5676
5750 1 1.87419 25.1727 58.1182
1818 1 2.56133 26.436 60.4593
880 1 3.90454 24.1398 59.3864
3104 1 5.62805 24.4257 61.2702
6942 1 3.95062 25.5903 62.3458
5580 1 7.73149 24.993 62.2009
145 1 6.32915 26.995 62.6545
864 1 7.44409 26.47 60.0925
871 1 9.32783 24.9681 60.3036
708 1 9.39603 27.1978 62.3063
5760 1 11.1785 23.539 59.6488
1919 1 10.4887 25.2909 62.3908
630 1 13.987 27.763 60.4789
2225 1 13.3244 24.3887 60.8757
2687 1 15.2204 25.9227 61.6041
6376 1 12.4432 25.7604 59.2608
614 1 12.4777 26.1983 62.0887
5124 1 14.6998 25.4329 59.022
6140 1 16.8001 24.6287 59.1219
4154 1 15.9298 24.0395 61.1533
2720 1 17.6813 25.844 61.2828
5426 1 16.7125 26.2709 64.1865
1435 1 18.7965 26.7474 58.4063
2473 1 17.6553 27.7897 62.4505
1349 1 20.6931 24.738 58.2736
7325 1 19.6441 25.3321 62.4417
3360 1 20.2472 26.1712 60.087
2151 1 23.1605 24.1396 59.1544
1741 1 21.3458 27.4542 62.6853
1268 1 19.5907 28.0799 60.8638
1252 1 22.5505 26.375 59.3931
7355 1 22.2508 25.2993 61.5387
2386 1 25.0356 25.1818 59.8407
5092 1 24.2204 28.0708 59.5919
5269 1 24.1307 27.6409 61.6899
7488 1 27.1413 27.3006 60.0909
6788 1 26.3303 26.0616 61.9703
870 1 29.4623 26.9151 59.4943
1669 1 27.8942 24.7551 59.2347
66 1 28.7888 26.0976 61.8075
4558 1 31.2853 24.4608 62.9853
2623 1 31.1442 26.7123 62.1615
7017 1 31.3359 24.9027 60.4162
2397 1 34.9335 27.2175 58.8685
6148 1 33.4856 26.6796 62.6841
6212 1 33.3789 24.7528 61.0841
3913 1 35.2854 25.9961 61.1463
2548 1 32.9736 27.145 60.432
5024 1 31.6454 27.2794 64.6019
5977 1 1.58478 27.9395 58.8283
1444 1 0.849371 28.1219 61.2379
7678 1 1.96739 30.3684 58.9822
4448 1 0.572433 30.7686 61.0288
5658 1 3.17464 30.4508 61.5448
3436 1 0.97889 29.1843 63.3154
3343 1 4.05199 32.4966 62.1698
4056 1 4.54932 29.5385 57.7677
4699 1 6.31161 28.5504 60.3386
2141 1 3.7109 28.634 59.7848
783 1 4.56858 28.3145 61.9008
4550 1 4.69951 30.7673 59.7297
1679 1 6.9272 30.6538 60.8566
291 1 7.80084 32.6395 63.7248
4316 1 7.20178 28.8631 62.2837
1825 1 10.5646 26.7865 60.2041
3756 1 9.46507 29.1505 60.7128
1998 1 7.77908 29.573 58.8579
4293 1 10.0906 31.151 59.0139
3592 1 9.31537 29.1869 63.4486
1030 1 8.84428 31.1309 62.378
3911 1 12.088 28.1684 58.8168
3250 1 11.6745 28.7101 61.2544
5661 1 13.9637 31.198 63.4881
4070 1 15.6623 28.7732 62.3546
301 1 13.1005 30.4539 61.2987
1504 1 11.1385 31.1911 62.0004
1412 1 18.9667 31.7899 58.9325
7739 1 15.8388 30.7738 61.0099
2855 1 17.3162 30.4936 63.0002
3507 1 16.6208 27.2314 60.0158
1101 1 17.6943 29.573 60.6728
6460 1 18.3036 31.6209 61.4439
3586 1 20.7412 27.98 57.9109
7996 1 20.1649 30.3691 60.8392
370 1 23.0062 28.1726 57.5058
7275 1 22.1542 29.1697 60.4659
3427 1 22.2558 32.0997 61.688
2546 1 21.4386 32.339 59.4122
4147 1 22.8919 30.3863 58.7674
5589 1 21.6535 30.0561 62.8316
5810 1 19.9535 31.6877 62.9717
714 1 26.3849 29.1657 59.1573
5339 1 24.3439 30.2012 60.6767
629 1 26.3679 29.4345 61.6068
1815 1 25.8832 31.5181 62.0335
7194 1 27.449 31.0107 60.0979
5751 1 24.1249 29.6426 62.8421
3976 1 30.8685 31.7783 58.739
5741 1 30.8356 28.8727 60.7089
5914 1 28.6447 28.6075 61.3074
3985 1 29.4714 30.121 58.9379
3198 1 31.5593 30.9662 60.7483
5650 1 34.935 30.1474 57.8342
5601 1 32.3003 28.7857 62.4065
3995 1 33.7754 29.4047 59.9945
3350 1 35.6967 31.1101 62.9528
5412 1 36.3872 29.058 59.6196
1678 1 35.1644 31.2643 60.4244
4045 1 34.7846 28.6815 62.2293
50 1 2.64445 34.7585 59.2133
6621 1 0.0436019 33.1805 61.0006
5566 1 2.20097 34.5922 61.8063
7272 1 -0.212695 34.7943 63.0674
4149 1 1.48882 32.607 62.9985
7968 1 2.22715 32.34 60.6802
3280 1 -0.302805 32.32 58.9435
4383 1 34.7491 33.9465 58.8677
7036 1 7.00968 33.8462 58.8889
6952 1 4.83847 33.6685 58.7537
5989 1 4.80806 34.56 61.2028
4224 1 5.93106 35.9494 59.0956
3271 1 6.06121 -0.45713 62.6375
7592 1 5.90845 32.4132 60.6372
6223 1 7.53688 34.313 61.7757
387 1 9.27363 34.8331 60.0307
6691 1 9.2957 36.3287 62.2322
1100 1 8.49199 32.2598 60.0325
7729 1 11.9357 34.5028 62.1973
5590 1 11.7039 35.3557 58.91
3333 1 10.6728 33.2494 58.4109
1650 1 9.92946 32.9618 61.9184
1902 1 11.78 32.7128 60.4272
3742 1 15.9171 32.2386 62.6471
5807 1 13.8263 32.9316 61.6861
3977 1 16.694 31.3429 58.7244
5757 1 14.3968 32.2569 59.7683
3567 1 15.8971 34.2851 61.5352
2701 1 17.9436 35.3757 61.0484
1591 1 18.1827 33.5064 62.8625
7587 1 17.516 33.4518 59.8898
3349 1 17.506 35.1639 64.259
377 1 24.2055 33.5347 61.7082
1897 1 22.7466 35.7708 62.4912
3434 1 19.8842 33.4054 61.1177
6772 1 20.3609 34.4931 59.0491
2469 1 22.2807 34.7497 60.235
2929 1 24.2458 -0.532193 60.869
3272 1 24.3774 32.3415 59.4913
1830 1 26.7089 32.8306 58.6458
935 1 26.9164 33.3062 61.0258
6449 1 27.2864 32.7804 63.2732
5753 1 25.8217 34.4536 63.5929
395 1 27.6544 36.39 63.2961
7510 1 28.7387 32.4328 57.4097
5649 1 31.1585 34.1995 60.81
1750 1 27.989 34.6201 58.3982
5970 1 29.398 30.7088 61.5541
2794 1 29.289 33.0446 59.8566
635 1 29.2151 33.5436 62.1185
6127 1 28.7789 35.6859 60.3193
2382 1 32.6016 34.8993 62.6947
7506 1 32.4895 35.1893 58.993
7511 1 33.5066 31.8851 58.9657
6155 1 33.5321 32.9759 60.7667
2072 1 34.8279 34.89 61.3504
2394 1 3.35879 -0.451533 65.0715
2461 1 2.67892 3.58232 65.1845
1195 1 1.63918 2.9119 66.8993
5672 1 1.77676 1.62437 64.843
5656 1 0.169845 4.17605 65.0005
6549 1 -0.609942 1.95872 66.4923
5909 1 3.90477 1.89817 66.2844
7758 1 -0.440549 0.19189 64.9554
6053 1 1.13562 0.421709 66.7427
2477 1 1.25211 -0.138233 63.5074
4627 1 6.14809 0.63236 64.8833
7019 1 6.43076 1.34058 67.1379
1351 1 8.89655 1.19642 64.661
7837 1 7.13919 3.07741 65.2713
3589 1 10.6094 2.88387 64.1106
6477 1 9.20183 3.31775 66.4317
934 1 12.5085 3.85443 65.2781
3582 1 10.8504 1.3401 66.3182
69 1 11.1015 0.366163 63.3189
1593 1 10.6968 -0.951482 68.2857
4960 1 14.6498 4.54106 64.0727
5112 1 13.5703 36.2797 62.4847
3830 1 13.9919 1.8822 62.7069
4858 1 12.5887 1.53505 65.1101
4876 1 15.2111 1.97273 64.4864
389 1 14.6154 1.53681 66.5821
5824 1 17.3525 1.57514 64.0404
5432 1 19.6491 1.29577 64.6655
553 1 17.9385 1.88243 66.228
2460 1 20.3345 3.42336 66.3275
703 1 17.0433 4.06108 63.9375
2691 1 15.994 3.29706 66.437
1651 1 23.2173 0.883151 64.1604
4644 1 21.906 3.27899 64.4199
3275 1 21.5227 1.47995 66.1551
6220 1 23.4587 2.81602 66.0124
2869 1 20.8206 35.7815 64.7973
4719 1 23.2947 35.9886 66.1637
3517 1 19.163 -0.46052 66.2171
625 1 24.7475 2.62768 64.1416
4623 1 24.9434 0.974054 66.3213
2547 1 27.1745 1.73429 64.5054
7357 1 26.6374 2.9761 66.4425
1103 1 26.6147 36.3007 66.3667
6799 1 29.4541 3.24079 64.6942
480 1 30.8537 3.43043 66.7203
2544 1 28.6748 1.67071 66.1988
713 1 31.0199 1.34678 64.6513
4879 1 30.7298 -0.437177 67.0483
7502 1 29.2321 -0.0575229 65.0794
6638 1 33.9279 1.06424 64.4003
5747 1 32.5434 1.16597 66.8809
7990 1 34.688 3.61964 66.6208
4702 1 34.5243 -0.292303 66.238
5025 1 32.4011 -0.406709 65.0697
5755 1 3.3276 5.79608 66.2555
2373 1 0.00239455 5.09934 67.0703
2455 1 2.10793 5.77055 64.4466
3585 1 -0.0479972 6.62891 64.1757
7912 1 3.92049 7.55687 64.6437
471 1 1.46856 7.01088 66.3048
784 1 5.3567 3.47685 67.0116
2857 1 6.7675 4.841 62.9188
4230 1 5.07753 4.92391 64.7132
228 1 7.81527 5.27607 66.4673
7675 1 7.46316 6.85267 64.7334
1906 1 5.78461 6.89298 66.3326
7513 1 12.5803 5.57068 63.602
7023 1 9.14693 7.11332 66.8822
5838 1 8.98121 4.61449 64.4185
638 1 10.9179 4.48263 66.6452
6475 1 11.0948 7.57193 62.7783
4000 1 14.6348 4.88571 66.8862
3355 1 10.6063 5.95996 64.9252
1111 1 12.812 6.04648 65.9501
7759 1 13.1105 7.74608 64.4892
1911 1 15.9838 6.78815 63.3504
2639 1 21.0755 5.34551 63.9371
2719 1 18.1165 4.79446 65.9468
477 1 15.9994 5.87377 65.5921
4301 1 18.0238 7.32952 64.8825
1677 1 19.8059 7.2732 66.2695
2795 1 21.9585 5.04637 66.2598
6075 1 21.778 7.51743 64.4793
2468 1 23.5134 5.4635 64.4397
1014 1 23.3968 6.92598 66.2646
3836 1 26.94 4.48832 64.4756
1102 1 25.7885 7.11011 64.2246
5898 1 24.7672 4.99613 66.5639
3335 1 26.883 6.30408 66.3385
7827 1 31.0468 5.10705 65.3713
5107 1 28.6608 6.52322 64.6065
4404 1 28.845 4.66252 66.4575
5678 1 30.8739 6.98535 66.4371
5038 1 32.5877 2.96472 65.344
4954 1 32.8509 7.02613 64.8044
1588 1 34.3671 5.38767 64.4717
702 1 32.5752 4.87304 66.963
6637 1 34.385 6.28109 66.7388
2238 1 -0.346149 9.53719 65.1136
2528 1 3.99872 9.01944 66.4971
1416 1 1.91189 8.70245 64.8069
5839 1 1.5169 10.9942 66.2146
3587 1 1.65551 10.8285 63.2072
5194 1 -0.475289 7.76853 66.9769
5355 1 -0.451733 10.3902 68.895
3426 1 6.13689 9.24459 64.2245
5504 1 5.39452 10.7954 62.7144
2470 1 5.46166 11.0344 65.9038
5439 1 7.10116 9.14502 66.382
3909 1 7.07825 11.9373 63.5426
6941 1 9.92648 8.85883 64.7695
479 1 9.64006 11.0118 63.6889
7839 1 9.62976 10.3313 66.2889
716 1 11.0483 8.23816 66.511
3024 1 11.8843 9.57533 63.7612
459 1 14.5258 10.1153 65.1951
5431 1 14.927 8.9606 62.8909
3520 1 12.1906 10.5336 66.2038
1909 1 13.889 8.41 66.5642
3183 1 14.4877 13.4822 62.6005
7437 1 15.8528 8.15455 65.5011
552 1 16.0217 11.2851 63.4661
1434 1 17.6046 9.39878 64.0048
3277 1 16.6629 10.8597 66.1455
6149 1 18.0265 8.65586 66.6877
4238 1 18.4639 11.2899 65.0708
6153 1 20.1429 11.0737 66.6028
7263 1 20.2476 9.56734 64.953
1905 1 23.8581 9.02526 64.3043
2870 1 21.7425 9.03921 66.6125
6712 1 22.3899 10.9581 64.8235
5655 1 23.6894 10.1291 66.432
4159 1 25.5787 8.625 66.3478
6151 1 27.3911 10.5717 66.6603
478 1 25.4183 10.9299 64.6889
6383 1 27.6178 8.54583 64.8114
47 1 29.9593 8.48137 64.3772
3979 1 28.8277 10.5111 64.7306
4468 1 28.8666 8.75707 66.8199
5829 1 31.3389 9.86568 65.8451
719 1 33.2713 9.54216 64.4134
6954 1 32.7978 8.42896 67.1196
878 1 34.6085 9.95335 66.5725
3747 1 -0.841015 11.9858 66.5843
233 1 34.9895 12.1332 64.3256
621 1 3.6549 10.4299 64.5043
4787 1 0.835145 12.559 64.6029
4240 1 1.08374 13.5851 66.8741
4125 1 3.26064 12.7851 65.3316
4064 1 1.51941 14.7606 64.4327
1999 1 2.80823 15.3784 66.4656
2234 1 3.62315 15.1985 63.5452
2129 1 4.66377 13.0434 63.3644
2542 1 5.53248 13.2603 66.0587
944 1 7.27003 14.0602 64.2032
5974 1 8.21299 12.1849 65.7352
1736 1 10.75 12.4215 65.5234
3112 1 8.44452 15.0971 65.9882
6933 1 9.45747 14.0134 63.8901
7254 1 11.035 15.666 64.9182
4374 1 14.3419 12.5314 66.4508
1733 1 13.3174 11.9077 64.3144
1278 1 13.845 14.6256 64.2669
851 1 12.7537 14.1332 66.1941
7012 1 20.3135 12.7358 64.8393
4235 1 16.0571 13.3121 64.8031
1739 1 15.7143 14.7323 66.7115
2000 1 17.7032 12.8229 66.6059
382 1 18.5608 14.5722 64.4017
2712 1 19.7043 14.2619 66.7245
5746 1 21.4593 13.0343 66.5437
6319 1 23.4889 14.9545 66.5445
7407 1 21.405 14.6099 64.2646
2134 1 23.2388 13.2309 65.0033
5359 1 21.4852 16.0206 66.6425
5272 1 27.2952 12.3226 64.7579
7032 1 25.3635 12.3542 66.3701
80 1 25.7505 14.5439 65.618
7107 1 27.8466 13.9493 66.2563
5201 1 27.4449 14.0282 63.4803
6794 1 29.8993 12.0546 63.6431
4705 1 28.104 16.2941 61.6063
3096 1 32.096 11.9683 64.4449
2694 1 30.0429 14.2073 64.3085
6795 1 29.8955 11.9278 66.2345
6961 1 31.551 13.7258 66.2306
1515 1 31.6576 16.3061 64.9283
3039 1 35.8515 14.3887 64.3521
7120 1 32.856 15.616 66.7905
5987 1 33.1869 12.123 66.2974
234 1 34.6478 13.73 66.4784
4540 1 33.1828 14.248 64.4594
5662 1 34.3976 16.1971 65.202
5335 1 -0.0947131 15.8609 66.3782
533 1 1.1634 18.7959 64.6294
5423 1 -0.262786 19.1122 66.8071
7818 1 1.55167 17.5862 66.7095
2239 1 1.89256 17.4428 62.686
1418 1 6.39237 19.279 63.793
5438 1 3.02992 17.2757 64.6645
466 1 4.87628 18.0031 65.9156
5984 1 7.41209 17.2765 64.8543
1924 1 5.33729 15.6437 65.1549
2377 1 4.02967 19.1552 63.4615
2050 1 7.19213 19.8145 65.8759
3518 1 8.99514 16.1958 63.3754
3408 1 7.92071 17.6642 67.1521
6077 1 9.03692 18.9068 64.2598
6393 1 9.85513 17.1863 65.3479
2718 1 10.5008 19.7155 66.1429
3974 1 13.1267 17.0202 63.3863
1359 1 11.556 18.8983 63.8607
3670 1 13.994 16.3064 66.0442
3107 1 12.0248 17.7736 66.4206
7986 1 16.0413 17.5962 62.9693
2788 1 14.3456 18.2618 64.6584
2313 1 15.9527 20.0346 64.7706
3435 1 15.9993 15.905 64.3735
4548 1 19.8407 16.609 63.9941
1898 1 17.8122 16.217 66.2485
1112 1 16.3815 18.6118 66.5165
2314 1 17.9817 18.1437 64.2482
2706 1 19.0571 17.9904 66.2151
1821 1 21.8002 16.5724 62.6329
3193 1 23.8177 16.5199 64.7763
211 1 23.1448 17.7269 66.7799
6714 1 21.2378 18.0175 65.1016
3109 1 23.8267 18.7532 64.7171
5279 1 25.6498 16.9387 66.7193
2370 1 27.7209 17.4166 66.2247
4079 1 25.6115 15.5263 63.0788
5358 1 25.3825 19.2247 66.7509
381 1 25.8148 17.6839 64.631
7666 1 28.003 19.1519 63.8597
6959 1 29.5821 15.6442 66.0899
6880 1 28.4944 19.7212 65.9624
5245 1 28.9183 16.7498 63.9502
5756 1 29.9528 20.3401 63.589
2048 1 30.385 18.0854 66.3611
2466 1 30.9464 19.9347 68.1499
7987 1 34.8714 17.4159 66.8669
236 1 32.854 18.5401 66.1455
6619 1 -0.353008 16.4885 63.6055
147 1 33.0548 21.0824 65.5334
6796 1 31.0535 20.1135 65.4499
5435 1 0.0148848 17.3771 68.4076
4639 1 1.43316 21.6849 66.6561
5979 1 1.88648 19.9317 62.4981
4614 1 1.45107 25.7008 63.8859
5345 1 0.367027 20.8256 63.914
219 1 -0.286284 23.5221 66.3085
6238 1 1.86409 23.5991 65.0306
2880 1 3.55157 23.2293 62.1812
1356 1 4.82723 20.2393 65.5494
3418 1 7.76553 21.1159 63.4807
4628 1 3.75036 22.763 65.8686
7993 1 3.00694 21.4061 64.2076
3971 1 2.80697 19.6949 66.2041
2387 1 5.95238 22.1065 65.435
1426 1 7.82459 23.7335 64.5664
4389 1 8.73379 21.8883 65.8157
3512 1 9.83441 23.8963 66.3501
2071 1 10.3488 20.8948 63.8213
2777 1 11.4384 22.8104 61.8579
872 1 14.4605 19.7865 62.5927
2062 1 11.4213 22.1381 65.3585
3658 1 12.4457 21.1264 63.5127
2714 1 13.1348 20.5894 65.987
2301 1 14.5267 21.7722 64.2251
4718 1 18.122 20.1714 66.1322
3839 1 15.9311 21.8491 62.1869
1117 1 15.7078 22.2684 65.9593
7977 1 17.3886 22.4367 63.8208
5505 1 19.9876 22.8513 63.4417
3998 1 21.6033 19.7868 66.4891
1583 1 19.469 20.2518 63.9679
2235 1 21.6032 20.9592 64.3848
3759 1 19.5723 22.0892 65.9438
6072 1 23.2469 21.2092 65.9229
5754 1 23.8593 21.1355 63.3685
366 1 21.6748 23.4669 65.658
2078 1 25.7261 21.008 65.0229
4480 1 27.2572 21.9339 66.7181
4223 1 25.6761 23.8203 66.3205
1427 1 27.9016 21.6918 64.1341
3028 1 27.3023 23.4284 68.5677
1430 1 28.9319 21.2408 61.9337
1277 1 29.7239 21.7315 65.9304
5833 1 27.6431 24.5018 63.6748
5259 1 28.7755 23.7239 66.4069
3828 1 31.5743 23.1004 65.6887
782 1 34.6739 21.3687 63.9117
7653 1 35.7157 21.133 65.9658
313 1 32.069 21.3763 63.428
528 1 34.2641 23.1779 65.9751
8000 1 32.76 21.9536 67.7363
5587 1 -0.126142 27.2337 63.0816
3570 1 1.25428 25.4117 66.5095
383 1 4.10379 24.7075 64.6604
6384 1 -0.714557 27.6096 66.7006
1997 1 3.25006 27.3735 66.3075
224 1 6.10303 29.0245 64.3024
1584 1 4.56696 26.9304 64.4664
49 1 6.2033 25.1274 63.97
2374 1 6.02394 24.4158 66.5495
1597 1 6.11413 26.903 66.3331
3266 1 10.0184 25.1722 64.4638
1036 1 8.04239 25.6323 66.2656
1760 1 10.0159 27.1027 65.8658
6470 1 11.3117 27.519 64.0379
791 1 9.82882 23.3277 63.3902
6389 1 12.6152 23.6969 63.7483
6232 1 12.1319 25.5681 66.012
7991 1 14.2367 26.0961 63.9635
1836 1 14.1295 26.7028 66.0868
7103 1 13.5435 23.4704 65.829
1420 1 15.808 25.0055 66.0696
1833 1 15.5374 24.4545 63.3769
3915 1 17.7553 26.3968 66.0876
947 1 17.9662 24.3614 63.6712
476 1 17.9577 23.9811 66.2444
1355 1 18.0661 25.0095 68.3817
1754 1 21.4084 25.3618 63.8375
7096 1 19.9039 24.9114 65.731
78 1 19.3534 27.1078 64.2034
4061 1 21.6461 26.4646 66.0071
556 1 23.2725 26.8311 64.2156
5033 1 19.7366 26.528 67.8944
5204 1 21.6586 24.9948 67.9038
6622 1 23.6785 23.464 64.8038
6943 1 23.5126 25.4732 66.311
3667 1 24.297 25.032 62.67
7972 1 27.7632 25.7835 65.7538
5969 1 25.2687 28.039 64.0159
1514 1 25.6009 24.9492 68.3669
1912 1 25.4442 25.4448 64.4313
5351 1 27.4201 27.9943 63.6068
3831 1 29.857 25.8246 64.2149
720 1 29.9328 28.5802 63.3257
5739 1 29.4273 28.0942 65.4928
5651 1 30.5087 25.3676 66.3177
3755 1 28.9317 25.1113 68.2008
3840 1 32.7528 24.3774 67.4767
5420 1 35.121 25.1941 63.6863
6000 1 34.9054 25.1729 66.5925
7412 1 32.7769 26.6582 66.9381
3191 1 34.4408 27.27 64.6143
797 1 32.8112 25.2033 64.9213
4625 1 2.3293 29.5259 66.171
2873 1 3.3415 31.438 66.4912
931 1 1.51819 30.9802 64.6806
6529 1 -0.0681697 30.9938 66.4437
6479 1 1.07662 27.5032 65.2676
218 1 3.74054 29.7413 64.0169
6955 1 5.08393 29.205 66.454
2557 1 6.72169 30.9233 66.8864
6131 1 5.66592 30.6774 62.509
3184 1 5.44817 31.505 64.4407
877 1 4.77814 30.8778 68.476
7741 1 7.57818 29.0231 66.2401
7106 1 7.89606 27.1186 64.2488
1835 1 8.01986 30.6193 64.7327
4789 1 10.1946 29.3124 65.8465
7102 1 10.2205 31.2786 64.2099
2378 1 12.2668 28.2341 66.224
4472 1 11.8168 31.8643 65.9875
1827 1 13.5283 28.1856 62.6055
6701 1 13.8985 30.6678 65.9636
6287 1 14.5402 28.6843 64.8319
4950 1 16.0026 32.2511 66.8476
1034 1 12.0503 29.7016 64.3081
5581 1 12.0562 33.0132 63.7152
2472 1 12.0928 26.8234 68.1336
2216 1 19.3983 29.2358 63.0752
5411 1 17.5544 28.843 64.5571
4304 1 16.1456 28.4896 66.4496
4229 1 16.1271 30.713 65.1275
1513 1 17.7213 30.5604 66.8467
2633 1 19.5502 28.4468 66.4013
1828 1 19.5556 30.5591 65.0415
4707 1 23.7051 27.9614 66.3877
5032 1 23.3765 29.918 64.9525
4942 1 21.355 30.3299 66.6616
3278 1 21.4567 28.6824 64.8321
6156 1 26.2243 30.2293 63.9311
2146 1 27.2144 28.7887 65.8923
7359 1 25.2769 30.5765 66.5829
7999 1 25.6383 26.5751 66.5421
5985 1 28.5366 30.1952 63.6853
2231 1 31.645 28.6754 66.6648
4077 1 29.7327 30.3137 65.8769
4211 1 31.2994 30.7281 64.4763
3910 1 33.07 29.0941 64.3446
7352 1 34.1472 31.2789 64.9235
3835 1 34.1961 29.1056 66.6446
7112 1 36.0391 29.3188 65.1032
2157 1 33.1257 30.7385 62.6184
6855 1 32.9494 30.9835 66.5561
75 1 1.29692 32.7886 66.0909
5731 1 36.2636 32.8653 64.5533
307 1 3.54144 32.7902 64.5075
7983 1 1.87133 34.6203 64.3655
2549 1 3.23456 34.6212 66.4863
4871 1 -0.341193 34.7291 66.0071
4948 1 8.24413 33.6316 65.9392
7334 1 5.83405 33.8618 63.2898
7652 1 4.8003 -0.272556 66.8425
2147 1 7.68483 35.3246 64.3549
2474 1 3.90528 35.158 63.3461
876 1 5.38043 32.7842 66.3588
1035 1 8.11695 -0.387277 66.6879
6705 1 10.1031 35.7257 65.4432
1600 1 9.36367 31.3238 66.6959
1744 1 5.46453 34.8053 65.2972
1592 1 10.0209 33.8899 63.8837
7507 1 11.0872 34.1331 66.6091
794 1 12.5031 36.0037 66.7984
3438 1 14.2838 -0.119627 64.5761
7438 1 14.0789 34.2168 63.7188
1507 1 12.2214 35.0023 64.7536
6224 1 13.6963 33.3781 66.0973
550 1 15.4707 35.0272 65.7214
1832 1 16.7221 -0.0431615 65.9777
4953 1 17.8638 -0.86057 68.3335
149 1 15.7005 32.9449 64.8309
1751 1 19.7824 32.3772 66.7219
2956 1 19.6703 33.8729 64.8434
3262 1 17.4781 34.2306 66.4954
4772 1 17.8691 32.2462 65.2727
4214 1 21.2455 33.6493 62.8272
232 1 23.7183 31.8704 63.5814
5084 1 21.4793 31.6899 64.6878
5185 1 23.7618 32.6264 66.4031
1976 1 23.3104 34.2746 64.3528
4878 1 21.4643 34.5442 66.6958
3359 1 25.4174 -0.23085 64.3089
4461 1 25.5229 32.1656 64.8982
71 1 27.8673 34.606 64.6466
7277 1 25.5033 34.3997 66.2014
5670 1 27.3209 32.8474 66.3947
5575 1 31.3976 32.7056 62.6655
7840 1 29.42 32.4363 64.37
7333 1 31.0335 32.5593 66.3739
7832 1 29.4491 34.4146 66.3811
3991 1 30.643 34.7631 64.2544
2302 1 34.4736 33.1005 63.0056
6629 1 34.6626 32.867 66.7508
7181 1 32.752 33.0751 64.7788
2154 1 34.3977 34.7172 64.4944
4381 1 32.2279 34.5584 66.7039
7907 1 1.83338 1.39218 68.6671
958 1 3.56891 1.38024 70.5928
4313 1 23.0622 4.38577 71.2864
7195 1 1.00978 -0.768605 69.8189
7430 1 -0.41521 1.53135 69.7937
7353 1 0.355376 3.34292 68.5774
7516 1 -0.630604 -0.0701358 68.0512
3908 1 12.1383 30.5269 71.6399
5597 1 3.19275 -0.384133 68.5185
7505 1 4.83497 1.25183 68.7798
960 1 7.30217 1.2594 69.8694
2484 1 12.9726 5.36778 71.5348
1990 1 10.6839 28.4599 71.7969
4001 1 19.3424 33.9879 71.865
79 1 3.75707 -0.547631 72.3922
7197 1 6.65878 36.0109 68.3755
2398 1 9.05436 1.57893 67.9986
1759 1 10.7912 1.08981 69.8386
2451 1 2.27408 30.5064 54.7012
4458 1 11.1471 3.00623 68.459
1761 1 9.47225 3.11777 69.8544
2481 1 12.7047 0.981709 71.4952
4797 1 12.7111 1.31464 68.3337
1839 1 12.7358 3.37394 70.1165
2559 1 14.8569 1.56722 70.0393
3519 1 14.7678 3.25858 71.7892
3281 1 16.7025 1.37929 71.9163
4943 1 18.1994 3.18115 67.9994
2637 1 16.3015 3.36275 70.1101
4078 1 17.9381 1.23668 69.8547
3284 1 18.2342 3.28527 71.5509
4081 1 19.8049 1.27077 71.9853
7281 1 34.1483 1.47716 71.8592
4877 1 20.0144 3.18289 69.5941
5192 1 16.5503 1.27741 68.1227
1425 1 19.806 1.6477 67.8364
7517 1 23.1374 1.15575 68.0439
4635 1 21.7229 3.36221 68.092
6394 1 21.3896 1.29594 70.2325
6554 1 23.3682 2.34223 70.1577
4084 1 21.1601 2.97863 71.8171
6396 1 23.2961 36.1725 69.9179
4239 1 21.2379 -0.33296 68.251
4881 1 23.5328 1.02258 71.9379
164 1 3.41165 6.71332 72.2453
4884 1 25.4581 0.735466 69.9686
6391 1 26.979 1.44343 68.0387
398 1 24.9565 2.88093 68.2591
7028 1 25.0155 -0.776371 68.292
7278 1 26.8654 35.734 70.6401
799 1 27.0597 3.04192 69.7163
5682 1 27.122 1.11558 72.2191
7435 1 28.5454 36.31 68.3119
555 1 30.4865 1.51134 68.4072
5684 1 28.6384 1.06929 69.9779
4851 1 28.605 3.47392 68.397
7188 1 30.6074 3.26511 70.3407
5759 1 30.7005 -0.556724 69.8948
7524 1 -0.0934824 14.4564 72.2538
7439 1 3.97846 3.35776 72.0299
6324 1 29.1921 32.424 72.0884
6560 1 -0.723549 34.4587 69.9443
7422 1 32.8517 -0.231632 68.5522
6551 1 34.6927 -0.127269 69.949
76 1 34.3852 1.74195 68.3577
1037 1 32.2841 1.71745 70.2007
240 1 34.4543 3.09015 70.2159
1921 1 8.81907 12.2973 71.9542
5683 1 29.0487 36.0082 71.9578
7124 1 32.4825 3.15102 68.317
1038 1 1.66856 3.66498 70.3834
7441 1 34.2979 8.55101 72.0234
7646 1 18.6316 30.0057 54.2221
2214 1 5.98307 28.1926 54.1667
1029 1 3.70227 3.43246 68.7143
5752 1 3.71265 7.23948 68.3388
1594 1 2.26715 5.1795 68.1832
5834 1 3.72135 5.22728 70.0485
7569 1 1.73509 6.64833 70.2802
6630 1 -0.45334 4.72897 70.6931
7115 1 31.263 31.9712 70.3494
5199 1 7.03461 7.07647 68.194
6556 1 5.50605 3.21132 70.0862
2635 1 7.35039 3.32198 67.9811
3255 1 5.23628 5.43715 68.2717
2057 1 5.40093 6.95365 70.2381
1838 1 7.00471 5.21133 70.2551
5890 1 16.9985 -0.0512807 54.2725
1604 1 10.756 -0.661705 72.0537
640 1 9.2647 5.27794 68.6118
74 1 10.8932 6.92124 68.7242
1193 1 8.69491 7.34691 69.789
473 1 10.8589 5.14149 70.3377
143 1 13.3534 3.32842 68.0887
5349 1 12.7229 5.39999 68.3953
1039 1 13.2027 7.05355 70.1767
1920 1 14.6876 4.87841 69.6353
1335 1 14.7734 6.94003 68.0663
6161 1 27.486 23.7025 71.89
3361 1 16.1214 5.32502 71.6803
2228 1 16.7362 4.87492 68.3276
2629 1 15.9559 6.90042 70.1211
4073 1 18.6029 4.93901 69.8028
4872 1 17.8993 7.04665 68.4766
3364 1 18.1734 6.87881 71.5455
4564 1 21.6663 24.6763 71.9854
4319 1 21.5379 6.61911 71.7789
3663 1 19.4467 5.30804 67.4513
1994 1 20.0966 7.34602 69.7525
3440 1 21.3218 6.78448 67.8128
7586 1 21.269 5.1207 69.945
4317 1 22.8388 7.11132 70.0475
4161 1 19.6851 5.07599 72.1602
4964 1 24.9012 6.78575 71.1927
2556 1 23.1754 5.21724 68.3635
5035 1 25.0536 6.73398 68.1277
3031 1 26.5725 4.91058 68.451
4862 1 24.6248 4.80534 70.0973
4393 1 27.2787 6.72575 69.7675
2961 1 12.4226 23.3112 71.7064
5441 1 30.9474 30.6348 72.2836
1024 1 28.7316 6.57423 67.6994
7509 1 30.5519 5.00998 68.6307
4875 1 28.7266 4.74474 70.2062
1512 1 30.9408 6.69949 70.5513
7199 1 32.7698 -0.519464 72.2499
7190 1 -0.0032738 6.84067 68.8515
7601 1 34.5633 15.9073 71.8911
4236 1 32.5455 6.50878 68.5928
4794 1 32.6635 4.74578 70.1538
60 1 34.6819 4.73716 68.5612
4959 1 34.5327 6.56743 70.077
1674 1 9.24776 30.6326 71.8559
7360 1 1.51935 8.53327 68.1855
7830 1 1.56162 10.0624 70.2805
244 1 3.74933 10.6546 71.3408
7518 1 -0.233042 8.53386 70.4185
961 1 5.55473 5.2672 72.2056
721 1 -0.187057 32.8327 72.4195
4076 1 3.25221 9.78957 68.757
2717 1 3.24446 8.35875 70.4077
624 1 7.58352 11.0235 67.7757
1199 1 5.44665 10.4976 70.1213
1165 1 5.73492 9.08252 68.3551
7998 1 7.08437 8.97971 70.0991
1044 1 7.4612 10.4788 71.7781
1041 1 5.4015 8.76393 71.8675
3918 1 9.00555 9.14682 68.1237
2638 1 9.39094 10.5318 70.0512
152 1 11.3374 10.2229 68.3133
7663 1 11.1018 8.6565 70.239
1841 1 9.22242 8.65909 72.0132
2716 1 10.5758 10.604 72.2056
2554 1 12.4473 8.89036 72.3295
2644 1 14.3219 10.4128 71.7098
4314 1 14.3255 10.9633 68.082
1834 1 12.8959 8.53631 68.6351
1496 1 12.3969 10.8977 70.1121
3270 1 14.6708 9.2066 69.9991
3441 1 16.3969 8.94091 71.8063
2299 1 15.9266 9.12116 67.6681
4318 1 16.2984 10.891 70.3296
4157 1 18.1228 10.6329 68.0396
1108 1 18.0898 8.87396 70.0591
3444 1 17.9528 10.7311 72.1702
4241 1 20.089 9.06053 71.8032
1421 1 19.9582 9.26001 68.1018
5822 1 19.4063 10.6636 69.9769
5041 1 23.4242 8.81015 71.6907
4957 1 23.4606 8.4511 68.0608
5027 1 21.7711 11.025 68.0772
5600 1 21.768 9.0622 69.8102
3029 1 23.2991 10.6757 69.6848
4244 1 21.908 10.506 71.9011
881 1 5.71464 1.6474 72.0098
3982 1 25.3225 10.5348 68.0434
5832 1 25.0554 8.94149 69.9705
7600 1 26.8403 8.63699 68.265
7911 1 26.9403 10.8752 70.2438
5044 1 25.0513 10.3628 71.9257
320 1 12.3126 12.2947 72.0786
3037 1 28.8675 10.5538 68.5434
1194 1 29.0103 8.76461 70.0826
3437 1 30.4816 8.64948 68.1279
5911 1 30.9948 10.1655 70.1283
4801 1 23.2323 34.0625 71.3824
6719 1 30.8531 8.41707 72.2899
5912 1 32.9959 10.2128 68.4423
5187 1 34.7922 8.40569 68.5743
7599 1 32.6676 8.66695 70.371
6079 1 34.7233 10.4526 70.4437
4320 1 32.6908 10.4443 72.0332
7515 1 -0.313767 12.3514 70.5009
1124 1 7.2373 14.594 71.6549
1684 1 10.8768 2.6933 71.9423
6145 1 1.18182 11.9254 68.7446
5196 1 1.49798 14.4097 70.5395
484 1 3.49693 12.3309 69.8125
324 1 3.48159 13.8299 71.8624
7748 1 2.99888 12.639 67.4275
1121 1 5.99375 12.5652 71.8458
4462 1 7.38093 13.6257 67.6428
1353 1 7.22516 12.2375 69.8049
231 1 5.31668 13.7486 69.9757
6879 1 5.45073 11.8375 68.3446
3924 1 17.7835 32.181 71.6527
1279 1 9.73525 12.1594 67.628
311 1 8.81883 14.1266 69.6184
4478 1 10.5438 12.471 70.033
7440 1 10.5806 14.5773 66.9805
2799 1 10.4444 14.4111 71.6797
7200 1 11.977 12.4228 67.8631
5346 1 13.888 14.2703 68.2646
2798 1 14.1173 12.6206 70.0781
1992 1 12.2537 14.4036 69.7834
7760 1 12.4108 16.226 68.0057
3521 1 15.992 12.7222 71.6539
2780 1 16.1877 12.8369 68.4016
4397 1 19.7297 12.3669 71.9469
2631 1 15.6806 14.5477 70.2133
4146 1 17.8623 12.6825 70.1912
4637 1 17.811 14.4479 68.2534
2077 1 20.0121 12.5796 68.5414
2800 1 18.0232 14.4485 71.8471
4324 1 21.3848 14.2754 72.1484
2878 1 19.7713 14.6074 69.7623
6627 1 23.8244 12.4731 68.1316
6713 1 21.5024 12.3749 70.4579
4473 1 22.2117 14.3059 68.3789
3598 1 23.5509 14.4693 70.7922
5121 1 23.4296 12.4979 71.6984
5921 1 26.9027 12.3347 72.1303
3594 1 25.4794 14.5553 67.9193
5118 1 25.0295 12.8084 69.9284
2708 1 27.1839 12.2078 68.2692
3430 1 27.5727 14.2829 69.8898
5271 1 25.5513 14.1491 71.8961
5116 1 31.1972 11.8523 68.2776
6239 1 28.6177 14.0886 72.1569
5437 1 29.3506 13.4407 68.2551
6950 1 29.0811 12.1232 70.4049
6144 1 30.9179 13.9426 70.0797
1762 1 8.8143 5.16955 71.664
5592 1 26.8437 34.6347 68.1095
7110 1 -0.443847 13.8574 68.3727
6315 1 32.6733 13.8876 68.6171
5433 1 32.4904 12.2863 70.2643
3734 1 34.4669 12.0999 68.6751
6561 1 34.5153 14.0796 70.492
7521 1 34.446 12.2889 71.8312
7734 1 34.7034 15.6678 68.591
2241 1 1.87004 15.7937 68.4611
318 1 3.63737 15.7825 69.7335
4631 1 3.41158 17.986 68.0796
3590 1 30.6712 34.5462 68.4711
1346 1 1.79102 17.6952 70.0021
798 1 1.52066 19.6437 68.1747
559 1 36.4429 16.0042 70.167
1764 1 11.0222 7.03078 71.8469
404 1 3.64507 17.6657 72.0238
5189 1 3.56701 19.3934 69.9659
4630 1 4.52194 14.5796 67.6105
5200 1 6.85237 15.778 69.5397
3679 1 5.7376 16.5631 67.6701
7033 1 5.30452 17.8528 69.9128
1201 1 5.1712 15.4185 71.797
6801 1 32.5316 14.3511 72.1686
2004 1 10.4975 18.0407 71.137
7267 1 9.99564 18.0793 68.0507
4554 1 10.392 15.8068 69.636
7994 1 8.74518 15.6694 68.1525
6870 1 7.96272 17.7803 69.5136
2311 1 8.42266 19.9599 67.7421
1270 1 9.79283 20.1451 69.7539
1524 1 7.29781 32.6009 72.0749
2715 1 14.008 16.3141 69.8147
2801 1 12.5179 15.9484 71.4042
2958 1 11.9456 17.7713 69.4911
1437 1 14.1589 18.1359 67.7205
1107 1 11.6694 19.728 68.2753
7034 1 14.0715 18.0915 71.4619
3604 1 17.7115 18.2907 72.019
3601 1 15.9296 16.4603 71.8632
4310 1 16.411 16.4492 68.0444
4484 1 19.5349 16.3455 68.4508
2710 1 16.0754 18.035 69.959
7825 1 17.8804 18.4883 68.6565
3599 1 17.8818 16.4425 70.0435
4398 1 19.5804 18.1011 70.2079
7436 1 23.7891 16.1527 69.16
3510 1 21.6469 16.1541 69.8838
4476 1 21.3558 18.1755 68.3136
5203 1 23.3708 18.5341 69.8858
3411 1 21.5626 18.3829 71.7973
5198 1 23.2666 16.7274 71.6611
4234 1 23.6148 19.8144 67.9215
4401 1 20.176 16.3679 71.6943
1985 1 27.7192 16.0567 67.9631
7828 1 26.2783 16.1161 69.7355
2617 1 25.3076 17.9403 68.7155
5924 1 27.6365 17.8223 70.0604
3821 1 27.2057 19.7293 68.1956
5197 1 27.326 15.7515 71.7044
6078 1 25.3634 17.9672 71.3105
560 1 30.5929 15.6597 68.168
6877 1 29.2251 16.2555 70.0479
5274 1 30.7471 15.9374 71.7439
7031 1 29.1858 18.1743 68.3079
637 1 30.8672 17.9892 70.2641
4156 1 29.1644 20.008 69.9723
6881 1 30.5999 19.696 72.0346
5919 1 32.6437 15.8501 70.0071
7838 1 36.1413 19.4164 69.7623
7604 1 -0.195881 17.93 71.7456
401 1 1.12524 16.2614 71.8322
6804 1 32.4573 17.5274 71.9272
1348 1 31.9993 17.7786 68.1773
5994 1 34.0801 17.9036 69.4848
7038 1 34.1021 19.9385 67.9222
7113 1 32.4814 19.6737 70.0967
7681 1 34.3346 19.1736 71.5594
801 1 5.31925 34.2962 72.2789
2876 1 1.88749 21.3391 69.9335
1200 1 1.922 23.388 68.0727
67 1 3.58597 21.6235 68.0221
7809 1 3.22947 23.4963 69.9681
7039 1 1.55911 23.1722 71.8209
6957 1 5.11704 19.7165 71.9074
6159 1 6.00754 19.1563 67.6915
1281 1 6.4499 20.0193 69.6663
634 1 5.33817 23.537 68.5497
1275 1 4.93819 21.9736 70.1056
2721 1 6.49394 21.5605 68.0017
868 1 6.77052 23.6106 70.4022
1284 1 6.48432 21.7974 71.959
1433 1 4.75186 23.7074 72.1805
2084 1 10.5094 21.6442 71.5403
2081 1 8.13569 19.9274 71.6003
3267 1 8.27846 21.6014 69.9375
2959 1 10.5698 21.4944 67.7067
3038 1 10.1703 23.2852 69.6735
154 1 8.42027 23.0125 68.0513
2884 1 14.1301 21.3411 71.5603
3673 1 14.077 19.5368 69.6174
2881 1 11.9184 19.9263 71.3713
7743 1 11.8468 23.5839 67.9215
1671 1 14.0192 22.0575 67.9721
1745 1 12.2953 22.0916 69.8255
2079 1 14.2136 23.3692 69.9354
73 1 28.1688 3.31671 55.3808
3681 1 15.9567 19.8574 71.4222
5677 1 15.7812 20.3083 67.8086
6397 1 19.5106 20.0562 67.9647
5360 1 17.6744 20.0477 69.9011
1599 1 17.573 21.7926 71.7213
3761 1 15.884 23.4394 71.7708
7167 1 15.9352 23.6276 67.9428
2067 1 15.8411 21.7952 69.678
7671 1 17.6748 22.001 67.8755
2160 1 17.6042 23.4907 69.8866
3678 1 19.3716 20.1169 71.3026
2233 1 19.7111 23.4517 67.845
2310 1 19.5403 23.1416 71.38
6786 1 23.3638 23.1834 71.4496
5281 1 23.6132 20.1444 71.684
2152 1 21.5336 20.2588 69.7756
3684 1 19.5417 21.7801 69.5437
2227 1 21.8007 21.7234 68.1001
1436 1 23.614 21.733 69.7217
3119 1 21.5599 23.3999 69.9837
1738 1 23.8024 23.0756 67.1725
2946 1 21.3317 22.0314 71.8784
3919 1 25.3747 20.0246 69.9245
5284 1 25.7529 21.7767 71.7906
4692 1 25.3308 21.5224 67.7164
4786 1 27.4272 21.7133 69.9743
4477 1 25.5288 23.3077 70.1422
5364 1 25.2386 25.3396 71.5484
6081 1 27.2419 19.8119 71.8378
6084 1 29.3497 21.615 72.2532
7114 1 30.645 23.3335 67.8771
7037 1 31.4696 23.7478 71.6556
6318 1 28.8669 21.6775 68.4285
4712 1 30.8321 21.6216 69.9258
314 1 29.3112 23.7087 70.2869
867 1 32.9897 23.3036 70.0283
6865 1 -0.46753 20.9634 68.3209
6884 1 32.3078 21.4942 72.0844
7684 1 -0.36924 21.2908 71.3506
5513 1 -0.114477 23.4105 69.9744
7982 1 34.8974 23.298 68.2206
2222 1 34.2604 21.4472 70.0495
7761 1 34.7048 23.2941 71.7768
7757 1 1.30299 27.1839 72.0361
7764 1 -0.355356 25.1811 71.8639
1579 1 1.60284 27.1815 68.3617
1361 1 1.33405 25.2791 70.0425
7755 1 3.04095 27.2337 70.2108
1440 1 7.063 28.6116 71.6593
7108 1 3.90555 24.823 67.3566
7104 1 6.97491 25.1004 68.3385
6874 1 5.05444 26.8311 68.3702
710 1 5.29671 25.4134 70.2104
7895 1 7.09057 27.1553 69.8991
2161 1 8.61843 23.3638 72.0099
1505 1 6.74878 25.5972 71.8735
7747 1 8.33043 27.3935 67.9058
1670 1 10.0826 25.586 67.6157
3837 1 8.72544 25.2129 69.8236
957 1 10.3201 26.8638 69.5108
2164 1 10.1925 25.076 71.7333
1364 1 8.82811 26.7039 71.9788
3041 1 12.0567 26.5751 72.1128
2964 1 14.0053 25.0984 71.5305
1020 1 13.7711 25.0331 67.9704
6867 1 12.0996 25.0997 69.9079
6311 1 13.5821 26.9883 69.914
3197 1 16.2901 26.503 67.6511
1354 1 15.996 25.3057 69.601
3912 1 17.7773 27.1037 69.7544
3764 1 17.8417 25.11 71.4703
4080 1 15.7475 26.9518 71.9885
3902 1 20.0939 24.7767 69.7315
959 1 8.98587 34.1962 72.153
2471 1 23.5062 24.7905 70.0095
4233 1 21.7545 26.5448 70.2766
7204 1 19.6553 26.5863 71.3145
2791 1 23.8655 26.9221 71.2758
4636 1 27.6682 27.2055 67.7585
6241 1 27.3482 26.9138 72.0094
2155 1 23.7213 26.626 68.3391
5357 1 25.9633 27.2798 69.765
4638 1 27.5446 25.2869 69.9278
5844 1 28.717 10.3441 71.7932
7041 1 30.77 27.3 71.825
6164 1 29.1555 25.7287 71.783
6398 1 28.7388 27.2415 70.0105
54 1 31.1287 25.2076 69.3736
1665 1 30.3205 27.2068 67.9866
6964 1 32.685 25.6127 71.2816
6553 1 34.6422 27.4537 68.4943
1996 1 -0.320879 27.0212 70.1131
1596 1 -0.406376 25.6242 68.2417
7841 1 34.5232 27.0389 71.7289
5507 1 32.5946 27.0028 69.4361
5676 1 34.6881 25.1513 70.1285
644 1 3.26697 29.0021 72.2407
4074 1 1.48102 31.0855 68.402
7044 1 1.2413 29.2562 70.1845
5680 1 3.38117 31.2406 70.3551
2240 1 1.64316 30.7329 72.0388
7364 1 -0.542923 6.98785 72.0892
7974 1 3.21652 28.9506 68.4134
2318 1 6.74678 29.1144 68.5223
718 1 5.07962 28.7352 70.2834
1439 1 7.11868 30.5736 70.3556
1521 1 5.2836 30.5619 72.0683
1681 1 9.04118 1.09176 71.8674
5681 1 24.9726 34.3064 69.871
4932 1 8.48411 30.4828 68.3099
3116 1 10.2826 28.9557 68.1463
7995 1 9.10496 28.6895 70.0911
1358 1 10.446 30.5705 70.0558
4804 1 24.9341 35.7746 71.8215
547 1 12.6186 30.3996 68.1691
7193 1 14.1023 30.1318 70.0403
4060 1 13.8304 28.5884 67.5473
1438 1 11.9478 28.7101 70.077
3044 1 13.9725 28.3921 72.0383
321 1 1.74692 12.291 71.3523
6484 1 32.2984 2.96852 72.1769
1662 1 17.9021 28.4001 67.8497
2879 1 15.6414 30.0789 68.1929
7924 1 1.53815 34.3074 72.1185
4148 1 15.6285 27.961 69.5677
3200 1 17.5569 29.9198 69.4602
948 1 19.5274 30.2519 68.3411
5109 1 19.8609 28.2417 69.5184
2312 1 21.7316 28.9198 71.642
2551 1 19.5493 30.3827 71.4091
3279 1 21.6238 28.0523 67.6785
1817 1 21.5715 30.3062 69.2186
1661 1 23.3399 28.7189 69.7547
2709 1 23.3992 30.5354 67.894
5444 1 25.3424 28.5486 71.7505
6321 1 26.8939 30.4798 71.6881
3187 1 25.4356 28.6892 67.9658
7029 1 24.85 30.3106 69.9571
1748 1 27.6226 30.6828 67.5205
4640 1 27.0355 29.3245 69.6562
6545 1 25.2616 32.2486 68.3004
6244 1 28.8565 29.0076 72.0127
785 1 31.0103 30.8244 68.285
4396 1 29.2762 28.9932 68.0059
793 1 29.1847 31.2762 69.8565
1516 1 30.7567 28.9348 70.0356
5515 1 35.1115 31.3067 68.3534
2309 1 -0.175234 31.1671 70.3665
1204 1 6.709 17.9146 71.9066
7255 1 -0.375729 29.3682 68.3453
4291 1 32.8174 29.1459 68.4113
7196 1 33.2095 30.7324 70.0917
564 1 34.6489 29.092 69.8699
7914 1 32.804 28.5359 71.7138
7921 1 34.7014 30.8897 72.0277
5817 1 0.174414 33.1997 68.2741
3261 1 3.11395 32.7355 68.5379
7433 1 1.59677 34.7898 68.0701
4560 1 24.9244 32.3839 71.5162
7916 1 1.52473 32.9177 70.2007
715 1 3.12856 34.7522 70.2462
800 1 5.28666 -0.366327 70.2148
6557 1 5.60413 32.4901 70.3365
7269 1 4.9449 34.2838 68.2101
2395 1 7.04231 34.3452 70.1464
6240 1 6.67542 32.7752 68.1607
153 1 29.1721 32.3646 67.917
724 1 3.4567 32.6479 71.9425
1115 1 -0.17053 10.2221 72.2312
2724 1 14.2732 14.4301 72.1394
7198 1 28.8938 33.9418 70.05
2634 1 8.7097 -0.596875 69.8987
7836 1 8.63413 32.4554 69.8069
3192 1 8.83479 34.6348 67.9469
3917 1 10.4666 34.1717 69.8027
2558 1 10.9633 32.1966 68.3387
2404 1 14.444 35.9798 71.5404
4798 1 12.6669 35.706 69.9418
481 1 1.69338 19.4312 71.9133
7264 1 14.3724 32.0289 68.1855
2479 1 12.4148 32.0522 70.0205
5429 1 14.7796 -0.276766 67.8616
77 1 12.7785 33.8979 68.558
792 1 14.4094 33.7154 70.0687
2001 1 8.63538 16.3548 71.1778
951 1 14.5071 32.0245 71.6594
161 1 1.83319 4.99917 72.1347
3201 1 15.9205 34.364 71.8419
1494 1 15.7315 34.4161 68.4751
4791 1 16.0412 -0.537678 69.9437
4714 1 17.6328 34.0987 70.1144
2385 1 16.1831 31.9184 69.8055
4160 1 17.681 32.6274 68.426
5521 1 19.4403 32.4878 69.7049
1015 1 19.4832 34.4102 67.9487
3439 1 19.8373 35.7606 69.9083
3276 1 21.6197 34.0539 69.6086
4004 1 21.4256 36.0227 71.6453
5679 1 23.2506 30.4296 71.9182
4629 1 27.0114 32.073 69.8888
3990 1 21.7113 32.411 67.8868
3994 1 23.1264 32.4466 69.7001
5666 1 23.3526 34.1317 67.8449
5764 1 28.5144 6.92198 71.8883
3914 1 27.3015 34.0064 71.6993
6562 1 28.4379 2.83539 71.6856
1752 1 0.644969 17.4465 53.729
5841 1 26.6316 8.59466 71.7555
7361 1 34.1989 4.6483 72.2315
879 1 36.3158 36.1324 71.7663
3921 1 15.8648 29.8294 71.7709
81 1 1.45019 0.569218 71.8507
3118 1 17.5429 28.3327 71.5822
7284 1 -0.313909 2.54847 72.1699
7118 1 2.98523 25.1883 71.7402
7844 1 -0.339051 29.0777 71.6298
3204 1 18.0191 -0.68438 71.4404
7201 1 34.449 34.4907 71.7141
3243 1 32.6518 3.5406 53.7676
3012 1 11.7751 24.9092 54.235
7823 1 35.6651 9.66508 54.547
946 1 19.2181 0.411389 53.7991
4042 1 19.5351 27.5415 54.275
3753 1 33.3121 28.1747 53.9406
3758 1 28.0155 34.3588 54.0991
5998 1 29.6112 -0.409006 54.5037
