ITEM: TIMESTEP
200000
ITEM: NUMBER OF ATOMS
8000
ITEM: BOX BOUNDS pp pp pp
-5.8674182434459254e-01 3.6136740824347577e+01
-5.8674182434459254e-01 3.6136740824347577e+01
-1.1734836486891851e+00 7.2273481648695153e+01
ITEM: ATOMS id type x y z
7288 1 1.9959 2.24783 1.57259
7285 1 -0.06175 0.797733 1.30191
7282 1 -0.125042 2.29129 -0.655197
7287 1 1.75749 0.698802 3.16787
7283 1 1.68892 0.449192 -0.660082
82 1 3.36454 2.44108 -0.082172
7286 1 -0.30239 2.2197 3.11435
86 1 3.81208 2.31348 3.0776
85 1 3.80236 0.467793 1.31312
88 1 5.55407 2.08068 1.47078
83 1 5.92495 0.325571 -0.266831
885 1 7.02833 0.0440817 1.83111
882 1 7.12762 2.73417 -0.383708
886 1 7.24193 2.19926 3.5842
87 1 5.28162 0.402848 3.44441
883 1 8.52437 0.728072 -0.0220183
888 1 8.94941 2.2196 2.22759
1685 1 10.8387 0.149755 1.74844
1682 1 10.9205 2.02512 0.539919
887 1 9.20702 0.0977505 3.37669
1686 1 11.0833 2.38661 3.32636
967 1 9.1839 4.19524 3.55819
1688 1 12.9607 1.64244 2.11561
1683 1 12.5343 0.0104357 0.141761
2485 1 14.363 1.91545 0.0652864
2402 1 14.5472 0.0597231 1.59087
2486 1 15.0556 2.09232 2.57517
2488 1 16.509 2.10977 1.0219
3285 1 18.228 0.378728 1.24547
3282 1 18.5786 2.40218 -0.729058
2483 1 15.8977 0.0161945 -0.552308
2487 1 16.4138 0.044837 2.92359
3286 1 18.1583 2.24942 2.78735
3287 1 20.2812 -0.0404251 2.88228
3283 1 20.2331 -0.0524961 -0.308784
3288 1 20.0674 1.8743 1.35614
4082 1 22.0702 1.98909 -0.405763
4085 1 21.9952 0.11046 1.21907
4882 1 24.0755 0.249066 -0.604335
4086 1 22.1682 1.67502 2.89405
4087 1 24.0211 0.201044 3.21719
4088 1 23.8859 1.99225 1.08571
4885 1 25.6922 -0.0785442 1.42019
4883 1 27.5423 0.471589 -0.360528
4888 1 27.5306 2.31395 1.08295
4881 1 25.9111 2.16653 -0.66235
4887 1 27.3121 0.416233 3.58305
4968 1 29.3571 2.0662 -0.509142
5685 1 28.7502 0.421121 1.66816
5763 1 30.759 0.137897 -0.536076
5688 1 31.06 1.78055 1.19191
5687 1 30.8401 0.188702 3.24371
5686 1 29.2917 2.19177 3.14187
6482 1 33.1456 2.23438 -0.576236
6485 1 32.9221 0.346039 1.01272
6483 1 34.6599 0.474272 -0.522005
6488 1 34.7579 2.22722 1.33769
6487 1 34.7468 0.262854 3.0424
6486 1 32.8869 1.90812 3.20256
7368 1 1.3808 5.78659 1.77549
7363 1 1.57702 4.17537 -0.0290348
7367 1 1.77583 3.91539 3.37962
7365 1 0.112867 3.58292 1.71064
7362 1 -0.364897 5.68136 -0.13646
7447 1 1.49555 8.10823 2.94534
7366 1 -0.00971562 5.80659 3.33749
162 1 3.02704 5.69919 -0.609406
7445 1 -0.200468 7.78126 1.4109
245 1 3.28704 7.98712 1.22333
163 1 5.19413 4.08199 -0.339984
166 1 3.45346 6.08562 3.20913
165 1 3.18461 4.29992 1.52571
168 1 4.92744 6.08248 1.03655
962 1 7.01548 5.92872 -0.49418
243 1 5.47203 7.54502 -0.874656
247 1 5.44933 7.73846 3.13385
965 1 6.55662 4.52436 1.53125
966 1 7.33181 6.12213 2.8997
968 1 9.18258 5.64012 1.65981
963 1 9.03143 3.82471 -0.0386664
1765 1 10.7899 4.07007 1.5414
1845 1 10.6943 5.91542 -0.21499
1047 1 9.27404 7.89183 3.1179
1766 1 10.7934 5.82435 3.29464
1768 1 12.6401 5.78769 1.38512
2562 1 14.6782 6.14754 -0.778388
2565 1 14.716 4.37962 1.02093
1763 1 12.8778 3.96428 0.0443278
2566 1 14.7275 6.19001 3.0676
2645 1 14.3947 7.40827 1.29472
1843 1 12.426 7.74479 -0.36032
1767 1 13.336 4.06681 2.96994
2563 1 16.4186 4.11982 -0.381488
2568 1 16.4261 6.08416 1.20745
3362 1 18.2031 5.63098 -0.198875
3365 1 18.6371 3.86251 1.34488
2567 1 16.3668 4.30378 2.97812
3445 1 18.1174 7.97655 1.1075
2643 1 16.4552 7.80433 -0.668522
3366 1 18.3936 5.73916 3.04939
3363 1 20.2761 3.76145 -0.465609
3368 1 20.229 5.73116 1.06849
4162 1 21.9176 5.78105 -0.277576
4165 1 22.1102 3.64756 1.22828
3367 1 20.4094 4.21009 2.9606
4169 1 23.4797 3.76779 3.05384
3447 1 20.1095 7.75427 2.67922
4166 1 21.8794 6.06904 2.88291
4168 1 23.683 6.15468 1.22207
4163 1 24.1383 4.14084 -0.366305
4972 1 27.9261 3.97846 3.38892
4167 1 25.5617 4.01076 1.27748
4962 1 25.5785 5.83843 -0.533931
5599 1 27.2343 5.74547 1.64654
4965 1 27.7585 3.80966 -0.745396
4966 1 25.2842 5.97999 2.93734
5047 1 27.2818 7.7301 3.79094
4967 1 28.9924 4.22689 1.27737
5762 1 28.9979 5.87411 -0.509329
5765 1 30.9958 3.91814 -0.0301441
5847 1 30.9125 5.90917 1.44674
2319 1 28.8492 6.31279 3.15483
5843 1 30.9638 7.80176 -0.271987
5767 1 31.1383 3.86322 2.5186
5845 1 28.6782 7.7766 1.49171
6563 1 34.8982 3.91605 -0.581247
6565 1 33 3.69716 1.21103
5768 1 32.8693 5.92755 -0.01369
6568 1 34.5448 5.99436 1.50515
6567 1 34.8111 4.08663 3.15814
6566 1 33.132 5.88921 3.33026
6647 1 34.5805 7.57601 3.44754
6643 1 35.0364 7.66773 -0.392436
7448 1 1.61334 9.92444 1.54422
7523 1 1.97608 11.102 -0.516559
7446 1 -0.262019 9.65994 3.69208
7525 1 -0.138355 11.4045 1.45536
7527 1 1.71645 11.2678 3.30745
7763 1 1.51368 22.2494 -0.430942
7442 1 -0.0314794 9.60453 -0.420981
7443 1 1.45643 7.68919 -0.366749
1045 1 7.07686 7.59082 1.14438
246 1 3.47001 9.63713 2.87657
248 1 5.45165 9.49077 1.35043
1042 1 7.43731 9.41916 -0.308676
325 1 3.48713 11.6855 1.39471
323 1 5.38511 11.1652 -0.672646
1125 1 7.17006 11.0787 1.09051
327 1 5.62599 10.9594 3.08844
1043 1 8.91756 7.77243 -0.521978
1849 1 11.0422 7.65101 1.56752
1048 1 9.1909 9.70842 1.21751
1842 1 10.9153 9.62759 -0.26995
1925 1 10.8669 11.4762 1.56183
1123 1 8.9818 11.3141 -0.582003
1846 1 10.8574 9.70426 3.43431
1127 1 8.78757 11.1647 3.339
1848 1 12.6608 9.21607 1.495
2642 1 14.3541 9.51066 -0.406656
2725 1 14.1677 11.1192 1.35125
1923 1 12.3792 11.342 -0.42957
1927 1 12.3133 11.4616 3.31285
2647 1 16.4904 7.94604 3.0143
2723 1 16.3185 11.7586 -0.353199
2648 1 16.3368 9.59137 1.04297
3442 1 18.3013 9.61497 -0.836821
3525 1 18.2148 11.5074 1.49982
2727 1 15.8841 11.2921 3.04664
3446 1 18.2009 9.57501 3.10342
3443 1 20.3197 7.62239 -0.445146
4245 1 22.0684 7.87149 0.97194
3448 1 20.057 9.34337 1.13397
3523 1 19.6467 11.7865 -0.448688
4242 1 21.9801 10.0142 -0.579584
4325 1 21.8654 11.4738 1.51594
4246 1 22.1303 9.31507 2.85398
3527 1 20.2389 11.4115 3.06113
5045 1 25.7771 7.65129 1.22742
4248 1 24.0397 9.18933 1.34572
4247 1 23.665 7.55641 3.38588
4243 1 23.9432 7.77104 -0.929406
5043 1 26.8917 7.64238 -0.788924
5048 1 27.1041 9.70536 0.965754
5123 1 27.4756 11.5141 -0.650336
5125 1 25.6186 11.505 1.57718
5042 1 25.6924 9.70184 -0.627958
5127 1 27.3136 11.4492 3.1227
4323 1 23.7673 11.3772 -0.283089
5842 1 28.9301 9.40714 -0.511119
5848 1 31.1724 10.0019 1.17438
5923 1 31.3625 11.4545 -0.568113
5927 1 31.084 11.3706 3.50398
5925 1 28.9808 11.0843 1.41111
5849 1 29.0179 9.50712 3.2511
6645 1 32.7708 8.26733 1.43505
6642 1 33.0999 10.0234 -0.43257
6648 1 34.981 9.63053 1.46926
6725 1 33.2023 11.1174 2.05514
6727 1 34.8831 11.3277 3.79682
6723 1 35.0066 11.5784 -0.237448
7528 1 1.72723 13.2912 1.01978
7526 1 0.0210859 12.9891 3.58211
7605 1 0.0501128 15.1146 1.70193
7603 1 1.87605 14.8828 -0.58767
7522 1 -0.0440248 13.3206 -0.500253
405 1 3.54836 14.6485 1.60849
322 1 3.89131 13.0789 -0.369549
326 1 3.64887 13.102 3.44145
328 1 5.31177 13.1874 1.4853
1205 1 7.03253 14.8624 1.44826
1126 1 7.19575 12.7811 3.06669
407 1 5.65574 14.6068 3.54071
403 1 5.22271 15.0533 -0.591294
1122 1 7.07831 13.2774 -0.391183
1128 1 8.85544 13.3327 1.09162
1922 1 10.4251 13.4121 -0.483112
2005 1 10.252 15.3331 1.68097
1203 1 8.83923 15.1252 -0.625542
1207 1 8.70283 14.6352 3.34126
1926 1 10.6308 13.3251 3.25286
1928 1 12.3416 13.5307 1.18146
2805 1 14.3292 15.2318 1.93376
2722 1 14.2911 13.4979 -0.490581
2726 1 14.1983 13.3133 2.91323
2003 1 12.6055 15.2711 -0.225213
2007 1 12.4274 15.2665 3.05655
2803 1 16.1231 15.1476 -0.0701477
2728 1 16.7137 13.2866 1.31212
3522 1 18.2424 13.7884 -0.14211
3605 1 18.2677 15.0489 1.75932
3603 1 20.2446 14.9301 -0.252705
3528 1 20.1977 12.9953 1.62509
4322 1 22.1235 13.4007 -0.345623
4405 1 22.5202 15.189 1.35513
4328 1 24.0807 13.2036 1.30765
4403 1 23.9735 15.0624 -0.506534
3607 1 20.5399 14.7172 3.21585
4326 1 22.2725 13.1952 3.23602
4407 1 23.971 14.937 3.32343
6003 1 27.2553 13.31 1.36967
5205 1 25.595 15.1445 1.30399
5122 1 25.7239 12.9854 -0.568012
5126 1 25.4502 12.9785 3.5911
5128 1 27.5527 14.7385 -0.655106
5207 1 27.2634 14.9771 3.33606
5922 1 29.219 13.0826 -0.101123
5928 1 31.3043 12.7429 1.32657
6005 1 29.4104 14.4915 1.69413
561 1 30.9707 14.9315 -0.0855137
6007 1 31.1265 14.9758 3.19816
5926 1 29.0532 13.0935 3.42975
6803 1 34.7159 14.991 -0.152944
6722 1 33.0146 13.2348 -0.167997
6728 1 34.9382 12.7634 1.60911
6805 1 33.0784 14.8495 1.72967
6807 1 34.7177 14.7338 3.32798
6726 1 32.7912 13.1213 3.72281
7608 1 1.91898 16.7501 1.96003
7683 1 1.48203 18.0401 -0.148324
7685 1 -0.332563 18.5952 1.15288
7602 1 -0.186853 16.5492 -0.568022
7606 1 -0.138778 17.2517 3.51166
485 1 3.326 18.7163 1.56223
406 1 3.67056 17.113 3.41701
7687 1 2.00451 18.7198 3.54137
401 1 3.59455 16.5365 -0.180982
408 1 5.50815 16.7925 1.66199
1285 1 7.11848 18.616 1.29471
487 1 5.73849 18.6084 3.38593
1206 1 7.18595 16.5726 3.44104
4631 1 5.1908 18.5781 -0.381692
1202 1 6.80719 16.7478 -0.458049
2002 1 10.5716 16.7339 -0.433253
1208 1 8.89964 16.953 1.04398
2085 1 10.5891 18.9221 1.1607
1283 1 8.61947 18.5584 -0.62568
6641 1 10.9945 17.1522 2.97395
1287 1 8.68031 18.4927 3.20944
2083 1 12.0828 18.7684 -0.743037
2008 1 12.4064 17.0669 1.33911
2885 1 13.9935 18.9144 1.75905
2806 1 14.3477 17.1499 3.38447
2087 1 12.7212 18.6805 3.57914
2802 1 14.157 17.4672 -0.115536
2883 1 16.7248 19.2792 -0.448148
2808 1 16.0054 17.2149 1.64772
3685 1 18.1583 18.9158 1.36262
3606 1 17.9942 17.3217 2.91018
3602 1 18.1813 17.2995 -0.0668797
3687 1 20.1475 18.6014 3.11488
3608 1 20.2655 16.7428 1.64712
3683 1 20.0421 19.0636 -0.469357
4402 1 21.9271 17.0807 -0.321822
4485 1 21.8469 18.9752 1.38685
4406 1 22.2124 17.1007 2.89352
4408 1 24.1525 16.9032 0.830091
4483 1 23.7709 18.7908 -0.498903
4487 1 23.5796 18.8759 3.40802
5208 1 27.6736 16.8136 1.00603
5283 1 27.5772 18.8251 -0.380691
5202 1 25.9616 17.0894 -0.53714
5285 1 25.6669 18.7843 1.43389
5206 1 25.5702 17.1808 3.21198
5287 1 27.5446 18.5317 2.97478
6085 1 29.3449 18.3477 1.48612
6002 1 29.3876 16.6686 -0.829572
6008 1 31.3941 16.8757 1.3984
6083 1 31.009 18.6145 -0.264156
6087 1 31.3526 18.5827 3.02901
6006 1 29.091 16.7039 3.30849
6885 1 33.2884 18.2954 1.47266
6802 1 32.8724 16.5195 -0.270614
6808 1 34.9887 16.6658 1.57361
6887 1 34.956 18.8381 3.08013
6806 1 33.1848 16.7495 3.3097
6883 1 34.382 18.2905 -0.478609
6882 1 33.0361 20.4946 -0.180459
7682 1 -0.396927 20.3971 -0.597061
7688 1 1.26484 20.387 1.19012
7765 1 1.57664 22.4461 3.27102
565 1 3.30288 22.5921 1.52882
6886 1 0.037715 22.4028 1.21477
7686 1 0.20619 20.7592 2.95587
482 1 3.77818 20.6603 -0.00881829
7768 1 1.58877 24.2778 1.17767
486 1 4.06963 20.446 3.13421
563 1 5.382 22.554 -0.608677
488 1 5.42285 20.4281 1.52553
1282 1 6.889 20.5299 -0.37222
1365 1 6.97848 22.1197 1.25711
567 1 5.56742 22.4113 3.19471
1286 1 7.151 20.7319 3.25568
1288 1 8.62473 20.1329 1.17307
2082 1 10.6895 20.6418 -0.616238
2165 1 10.5728 22.5537 1.2155
1367 1 8.49226 22.4422 2.81745
2086 1 10.1025 20.323 3.00885
1363 1 8.67848 22.2336 -0.9932
2088 1 12.2774 20.3719 1.4158
2965 1 13.9729 22.2111 1.40252
2163 1 12.7575 22.0195 -0.7129
2886 1 14.4437 20.5288 3.30032
2167 1 12.3542 22.0612 3.12877
2882 1 14.2681 20.1659 -0.359137
2966 1 14.3833 23.9984 3.24014
2963 1 16.2178 22.1493 -0.344106
2888 1 16.1729 20.3404 1.39892
3765 1 18.053 22.1383 1.34814
3682 1 18.3173 20.9985 -1.04809
3686 1 18.0164 20.5589 3.26541
2967 1 16.2784 22.3165 3.10465
3763 1 20.0939 22.3048 -0.254871
3688 1 19.9017 20.5946 1.19238
3767 1 19.8598 22.7271 3.18123
4482 1 21.8615 20.2976 -0.589793
4565 1 21.793 21.9073 1.07028
4486 1 21.3781 20.9259 3.34373
4567 1 23.8844 22.3142 3.3062
4563 1 23.8673 22.3546 -0.387458
3768 1 20.0489 24.2895 1.19667
4488 1 23.5522 20.3002 1.35441
5282 1 25.4418 20.6341 -0.167797
5365 1 25.8857 22.5068 1.55296
5288 1 27.2499 20.6293 1.40002
5367 1 27.6216 21.8955 3.10828
5286 1 25.5257 20.3222 3.40498
6161 1 27.7221 21.9575 -0.925157
6165 1 29.1165 22.0091 1.14682
6088 1 31.0604 20.3739 1.21531
6167 1 31.0726 22.118 3.29865
6082 1 29.5707 20.3904 -0.856401
6163 1 30.9621 22.31 -0.301351
4022 1 21.6359 34.9896 17.3393
3829 1 32.7132 22.428 1.13831
6888 1 34.6467 20.6691 1.47828
6967 1 33.0262 20.8858 2.91874
6963 1 35.0372 22.3305 -0.491842
6965 1 -0.168853 23.9422 3.0557
562 1 3.43155 24.2047 -0.3975
7762 1 -0.213864 24.0478 -0.641999
7043 1 0.0990629 27.427 -0.455765
646 1 1.69185 25.9214 3.2828
7845 1 -0.149941 26.0029 1.38467
7843 1 1.567 25.6635 -0.970262
566 1 3.66564 24.393 3.23383
7848 1 1.77963 27.5178 1.46168
7846 1 -0.192725 27.9016 3.22758
648 1 3.21798 27.7883 2.97459
1366 1 6.89523 24.4654 2.8847
644 1 3.25894 27.8994 -0.7767
645 1 3.63424 25.9795 1.11778
568 1 5.55769 24.4371 1.09424
3942 1 17.7396 31.2514 17.2254
1445 1 7.26667 26.2197 0.919819
647 1 5.21216 26.1304 2.99788
1446 1 6.68002 28.0731 2.72685
3863 1 19.7483 25.8728 16.9845
1368 1 8.71004 23.993 0.824889
2166 1 10.6351 23.9756 3.1966
1443 1 10.7095 23.7348 -0.637062
718 1 8.95786 25.8456 -0.548872
2245 1 10.5156 25.5964 1.29252
2246 1 10.7146 27.6878 2.99327
1447 1 9.01298 26.2016 3.1545
2242 1 10.591 27.8098 -0.517349
2168 1 12.4331 24.0981 1.16615
2962 1 14.2804 23.7526 -0.269522
3045 1 14.2638 26.1165 1.12467
2243 1 12.5633 25.7599 -0.795507
2248 1 12.6531 27.945 1.25801
3042 1 14.1133 27.7546 -0.59903
2247 1 12.692 25.8057 3.13613
3762 1 17.9084 23.8908 -0.205776
2968 1 16.0003 23.973 1.36855
3043 1 16.1994 25.6695 -0.0776528
3845 1 18.4019 26.0967 1.6098
3048 1 16.0343 27.7028 1.40445
3842 1 18.1468 27.8242 0.12315
3766 1 17.94 24.0527 2.69765
3047 1 16.1657 25.7294 3.0588
3847 1 20.2466 25.8604 3.15619
3843 1 20.1702 26.3068 -0.217958
3848 1 20.1904 27.7619 1.64113
4562 1 21.8365 23.8935 -0.250056
4642 1 21.9254 25.7144 1.41145
4568 1 23.688 23.7154 1.21662
4648 1 23.9237 27.1781 1.49551
4646 1 21.9974 27.6751 2.83498
4721 1 22.21 27.6529 -0.23845
4566 1 22.0754 24.1316 3.14575
4647 1 23.9621 25.8403 3.31184
4643 1 23.6428 25.686 -0.0672892
5366 1 25.5988 24.1424 3.10913
5445 1 25.8248 25.8232 1.30636
5443 1 27.888 25.9248 -0.469188
5368 1 27.8259 23.6908 0.925238
5447 1 27.5942 25.8572 3.08928
5362 1 25.8002 24.0394 -0.470276
5446 1 25.6612 27.3641 3.28957
6243 1 31.243 25.5112 -0.742506
6162 1 29.5629 23.9403 -0.813731
6245 1 29.647 25.7228 1.44347
6168 1 30.8141 23.6379 1.37215
6166 1 29.0752 23.8153 3.16401
6247 1 31.667 26.0095 3.22704
6246 1 29.8035 27.1693 3.42501
6242 1 29.8565 27.6582 -0.52102
6248 1 31.3458 27.395 1.37844
7047 1 34.6296 25.62 -0.560618
6966 1 32.8301 23.727 2.89396
7045 1 32.9314 25.3614 1.1023
6968 1 34.6684 23.9146 1.24787
6962 1 32.8263 23.6126 -0.94819
7850 1 34.5462 25.6892 3.12698
7042 1 32.7623 27.3012 -0.531997
7048 1 34.8009 27.52 1.18004
7046 1 32.9235 27.7177 3.65684
7922 1 -0.210391 31.7715 -0.417762
7925 1 0.100336 29.5804 1.4251
7928 1 1.61569 31.4196 1.17445
7842 1 1.19023 29.8598 -0.823687
1448 1 5.18356 27.6594 0.807993
1442 1 7.19209 27.8046 -0.788731
7923 1 3.3152 29.7674 0.767377
722 1 3.1157 31.5068 -0.392082
723 1 5.01631 29.8269 -1.08365
1525 1 6.65691 29.4863 0.937217
1526 1 6.83129 31.0727 2.952
1522 1 6.92397 31.655 -0.56733
728 1 5.13504 31.2392 1.30885
727 1 4.95488 29.5258 3.09177
2325 1 8.86367 27.9867 1.23435
1523 1 8.92504 29.7094 -0.457623
807 1 10.7441 29.4121 1.39253
2322 1 10.8657 31.5528 -0.105608
1528 1 8.91145 31.2818 1.12406
1609 1 11.1782 31.2475 3.12204
1527 1 8.7668 29.7516 3.1451
3046 1 14.6064 27.756 3.0041
2323 1 12.2544 29.5248 -0.415909
3125 1 14.5373 29.4805 1.30158
2328 1 12.8716 31.2583 1.36937
2324 1 14.4573 31.3775 -0.661081
2327 1 12.5119 29.5072 3.13324
3126 1 14.7837 30.9248 3.24951
3123 1 15.9928 29.4886 -0.620223
3925 1 18.366 29.6484 1.38532
3128 1 16.3954 31.3576 1.35086
3922 1 18.2653 31.4013 -0.314637
3127 1 16.6674 29.176 3.34559
3926 1 18.325 31.1699 3.51278
3927 1 19.9801 29.2315 3.25329
3923 1 20.3842 30.1111 -0.348958
4722 1 22.5044 31.5783 -0.235698
4725 1 22.2378 29.3161 1.23906
4723 1 23.9888 29.6138 -0.364657
4728 1 23.7278 31.1266 1.73336
3928 1 20.4674 31.0952 1.78451
5448 1 27.7432 27.5194 1.37312
5442 1 25.7064 27.8718 -0.46561
5523 1 27.7965 29.2957 -0.0468827
5525 1 25.534 29.085 1.35073
5528 1 27.1393 31.1388 2.00221
5522 1 26.0531 31.1137 -0.100148
6325 1 29.5608 29.5381 1.26838
6323 1 31.6922 29.6824 -0.42377
6328 1 31.4739 31.1279 1.36981
6322 1 29.6855 31.0197 -0.227616
6327 1 31.0176 29.5271 3.1454
6326 1 29.0817 30.9952 3.04983
7125 1 33.0899 29.1132 1.61139
7123 1 34.9424 29.6237 -0.184761
7128 1 34.8013 31.2959 1.47733
7122 1 33.102 31.4164 -0.329241
7127 1 34.7058 29.4217 3.15349
7126 1 32.8145 31.4266 3.25976
7208 1 1.85705 35.3871 0.997166
7203 1 2.14106 33.5847 -1.10652
7205 1 0.112054 33.5338 1.28104
7207 1 1.29019 33.304 3.19124
7206 1 -0.00820043 35.6334 2.792
7202 1 0.00533653 35.056 -0.357698
2 1 3.87599 35.6518 -0.420387
5 1 3.05751 33.5226 1.3257
1 1 4.77856 33.7135 -0.436784
8 1 5.42628 35.2963 1.72763
3 1 6.80251 33.1479 1.19946
7 1 4.83171 33.0636 3.21479
806 1 7.35813 34.8804 3.11646
802 1 7.28693 34.877 -0.452691
6 1 3.07768 35.3985 3.10822
6497 1 33.2012 35.219 14.1677
1602 1 10.7255 35.1777 -0.305999
808 1 9.2152 35.1498 1.84585
1605 1 10.5319 33.2989 1.90095
1606 1 10.9121 35.1566 3.7424
805 1 8.68104 32.8587 3.11779
1603 1 12.3971 33.5219 0.0976283
3117 1 14.4809 34.9321 -0.029917
1608 1 12.6304 35.0406 1.79344
2405 1 14.6738 33.1853 1.71174
1607 1 12.8414 33.0382 3.34629
2406 1 14.6216 35.0302 3.30387
3122 1 16.3001 33.1963 -0.38685
3202 1 17.9908 34.9877 -0.227792
2408 1 16.342 34.7164 1.73717
3205 1 18.3858 33.2883 1.70617
2407 1 16.566 32.8916 3.39553
3206 1 18.4751 34.9936 3.12739
3208 1 20.602 34.8253 1.29253
3203 1 20.2892 33.1938 -0.240404
4002 1 22.6162 34.449 -0.25516
4005 1 22.1835 32.9801 2.12723
4008 1 24.1308 34.9002 1.46305
4006 1 22.4236 35.0726 3.00187
4003 1 24.5992 32.9354 -0.229291
4802 1 25.875 34.848 -0.370757
4808 1 27.6592 34.8181 1.58024
4805 1 25.724 33.2423 1.87899
4803 1 27.8636 33.1753 -0.347051
4807 1 27.6632 33.147 3.30564
4806 1 25.6475 35.0813 3.39919
5608 1 30.6767 34.9588 1.65002
5605 1 29.2766 32.9029 1.48341
5602 1 29.3023 35.3087 -0.0340265
5606 1 28.9956 35.3482 3.23819
5607 1 30.9119 33.1518 3.00296
5603 1 30.8045 33.3459 -0.447504
6403 1 34.5728 33.5357 -0.553467
6408 1 34.6436 35.4306 1.22349
6402 1 32.6638 35.2386 -0.180221
6405 1 32.9082 33.1452 1.09874
6407 1 34.2798 33.5206 2.90494
6406 1 32.6118 35.3344 2.93423
7291 1 1.67981 0.170473 6.59126
7292 1 1.65209 2.2597 5.07463
7289 1 -0.360764 0.513849 4.70629
7290 1 -0.0431794 2.02254 6.9303
89 1 3.24744 0.380102 4.98622
90 1 3.38882 2.4582 7.10828
92 1 5.36584 2.30006 5.08171
91 1 5.2434 0.462496 6.47654
803 1 6.99803 0.112031 4.91145
890 1 7.10981 1.99375 6.90689
889 1 8.76108 0.0920973 6.59749
892 1 9.10626 1.888 4.71864
1689 1 10.9016 0.490443 5.01568
891 1 11.2985 1.86355 6.71746
971 1 8.63474 3.46494 6.13407
1769 1 10.9347 4.04925 5.10336
1687 1 12.564 0.0300174 3.67585
1691 1 13.0733 0.078027 6.40239
1692 1 12.7794 2.33566 5.03084
2489 1 14.4549 0.432956 4.71907
2490 1 14.8319 2.04576 6.71604
2492 1 16.7118 1.71876 4.76204
2491 1 16.5044 0.381894 6.61113
3289 1 18.4352 0.14577 4.46131
3290 1 18.4487 1.95874 6.48712
3292 1 20.1929 1.99789 4.36335
3291 1 20.1289 0.260652 6.45205
4089 1 22.0105 0.119985 5.00925
4090 1 21.9285 1.9072 6.86948
4091 1 23.8341 0.608735 6.84918
4170 1 22.033 3.87164 5.11581
4886 1 25.5873 2.13477 2.94205
4092 1 23.5111 2.16367 4.90876
4890 1 25.7389 2.42318 6.97817
4889 1 25.4562 0.95701 4.95892
4891 1 27.7767 0.312855 6.68518
4892 1 27.6035 2.28311 5.0058
5689 1 29.1952 0.099197 5.111
5690 1 29.7108 2.06309 6.64131
5691 1 31.4535 0.366152 6.47633
5692 1 31.1907 2.03041 4.75031
6489 1 32.8192 0.0228475 4.66623
6490 1 32.7972 2.19196 6.54646
6492 1 34.5998 2.30015 4.9443
6491 1 34.7449 0.571509 6.77144
7372 1 1.6548 5.59441 4.93747
7371 1 1.45501 4.10384 6.90005
7369 1 -0.0837272 3.7322 4.92079
7370 1 -0.140152 5.952 6.647
7449 1 -0.18154 7.91317 5.52065
170 1 3.39044 5.92237 6.81815
169 1 3.50483 4.33441 5.18368
167 1 5.18786 4.43251 3.22536
171 1 5.3755 4.10927 6.86722
172 1 5.22965 5.9618 4.86648
970 1 7.13094 5.86194 6.86754
251 1 4.87511 7.50171 6.96141
1049 1 6.99149 7.72089 4.95574
249 1 3.42936 7.78433 4.61883
969 1 7.07605 4.20559 4.6721
972 1 8.87439 5.86573 5.13994
1853 1 11.0187 5.97873 6.65861
1770 1 10.8712 7.50002 4.68849
1772 1 12.8365 5.56512 4.80686
1771 1 12.7828 4.07111 6.58475
2569 1 14.8485 3.61806 4.80815
2570 1 14.756 5.55668 6.69889
2649 1 14.8764 7.48424 5.13523
1851 1 13.17 7.23226 6.49426
2571 1 16.7988 3.57988 6.57138
2572 1 16.6718 5.86487 4.9214
3369 1 17.9166 3.69054 4.69776
3370 1 18.3129 5.58201 6.83897
2651 1 16.5381 7.46039 6.78194
3449 1 18.6717 7.73453 4.6174
3372 1 20.1059 5.74611 4.78358
3371 1 20.0098 3.68402 6.2942
4176 1 21.8889 5.96989 7.05429
4172 1 23.4532 5.5333 4.79167
3451 1 20.1946 7.73607 6.55141
4251 1 23.6636 7.42693 6.75337
4171 1 23.8653 4.14141 6.77052
4969 1 25.4595 3.56754 4.85284
4970 1 25.4204 5.73908 6.35153
4971 1 27.9153 4.17986 6.97467
5766 1 26.804 5.55996 4.52634
5051 1 27.2369 7.18398 6.73145
5049 1 25.3979 7.68645 4.9634
5769 1 29.8452 4.42775 4.61201
5770 1 29.4858 5.69642 6.65355
5772 1 31.1008 6.31186 4.56824
5771 1 30.9483 3.90013 6.84729
4321 1 29.0367 7.63694 5.16511
6571 1 34.6355 3.89489 6.53336
6570 1 32.9152 5.71988 6.4383
6569 1 32.7494 3.8665 4.81527
6572 1 35.1093 5.9213 4.89118
6651 1 34.638 7.34228 6.69242
7451 1 1.71156 7.88008 6.9057
7452 1 1.55833 9.32378 5.01087
7450 1 -0.0715416 9.54068 7.02261
329 1 3.3669 10.9797 5.04868
7531 1 1.82327 11.1903 6.92304
1046 1 7.42839 9.19281 2.92628
250 1 3.3292 9.25822 6.92183
252 1 5.2485 9.18475 4.90587
1050 1 6.9616 9.27065 6.8083
1129 1 7.11254 10.9481 5.29314
331 1 5.15218 10.7116 6.92276
1051 1 9.16245 7.39045 6.88523
1052 1 9.13166 9.31498 5.26823
1850 1 10.8721 9.40385 6.85248
1131 1 9.14307 11.1936 7.23371
1929 1 10.7227 11.3446 5.34683
1847 1 12.7596 7.77086 3.30785
2646 1 14.6197 9.51014 3.41903
1852 1 12.5825 9.58319 4.89939
2650 1 14.509 9.15377 6.61784
1931 1 13.1829 11.7176 6.90479
2729 1 14.4871 12.1467 4.89411
2652 1 16.2918 9.7235 4.9418
3450 1 18.1037 9.29287 6.50306
3529 1 18.5083 11.2843 4.97838
2731 1 16.7276 11.4507 6.43772
4327 1 23.9142 11.1002 3.11131
3531 1 19.9781 11.3587 6.84436
4249 1 21.6584 7.58562 4.85469
3452 1 20.1644 9.46557 4.45297
4250 1 21.5415 9.486 6.74874
4329 1 22.058 11.2865 4.89219
4331 1 23.7603 11.3692 6.80233
5046 1 25.6616 9.35685 3.05291
4252 1 23.3764 9.15929 5.22687
5050 1 25.4778 9.12991 6.72108
5052 1 27.1328 9.34145 5.05108
5129 1 25.2843 10.9902 5.02403
5131 1 27.3728 11.0138 7.00478
5846 1 30.8994 7.8291 2.91273
5851 1 30.9736 7.64336 6.63922
5850 1 29.3357 9.39673 6.96432
5852 1 30.6731 9.34625 4.88323
5931 1 31.1278 10.9993 6.95049
5929 1 28.8517 11.1875 5.12744
6646 1 32.9197 9.37468 3.61169
6649 1 33.0347 7.43203 5.00279
7529 1 -0.0930523 11.4118 5.35636
6650 1 33.0017 9.51527 6.70083
6652 1 34.8928 9.61102 5.47421
6729 1 33.0811 11.4073 5.3293
6731 1 34.6571 11.2157 7.17817
7607 1 1.74218 14.5793 3.29903
7532 1 1.57136 13.0853 5.39866
7530 1 -0.30474 13.161 6.91606
7611 1 1.72697 15.0303 6.75046
7609 1 -0.285765 14.7029 5.26073
330 1 3.52113 12.8919 6.52941
409 1 3.50531 14.7494 5.00399
332 1 5.37979 12.6682 5.4005
1130 1 7.44801 12.6915 6.97579
411 1 5.15012 14.8974 6.86404
1209 1 7.32716 14.7843 5.26839
1132 1 8.89823 13.0869 5.08569
1930 1 10.7985 13.1427 6.92118
1211 1 8.86012 15.0362 6.7489
2009 1 10.5898 15.1852 4.68803
1932 1 12.3594 13.0501 5.14635
2730 1 15.0048 13.3537 6.84666
2809 1 14.4965 14.8338 4.89425
2011 1 12.5497 15.0822 6.43557
3526 1 18.3964 13.264 3.50161
2807 1 16.2549 15.1477 3.09651
2732 1 16.4664 13.3876 5.08168
3530 1 18.3252 13.4036 6.8948
3609 1 18.1265 15.0263 4.99038
2811 1 16.5189 14.9489 6.79323
3532 1 20.2288 13.1048 5.05271
3611 1 20.0807 15.0471 6.64326
4330 1 21.788 12.9759 6.92106
4411 1 23.7089 15.0042 6.83838
4409 1 22.0183 14.811 4.99277
4332 1 23.6776 13.2033 5.07346
5130 1 25.5601 13.049 6.49867
5132 1 27.409 13.1311 5.1878
5211 1 27.557 15.0666 6.73828
5209 1 25.3435 15.1921 4.94614
5930 1 29.0853 12.8745 6.77846
5932 1 30.9744 12.7511 5.5493
6011 1 30.856 15.0363 6.59359
6009 1 28.8604 15.0023 4.78286
6730 1 32.9974 13.0203 6.94058
6732 1 34.7053 13.1616 5.22585
6811 1 34.7919 15.1245 6.89892
6809 1 33.2599 14.8989 5.37605
7612 1 1.82816 16.6309 4.839
7692 1 2.1254 18.6295 6.41629
7689 1 -0.0736273 19.1811 5.18537
7610 1 -0.0123265 16.666 6.63533
410 1 3.69121 16.758 6.51011
489 1 4.02464 18.7366 5.12224
412 1 5.55631 16.8305 5.32396
1210 1 7.48694 16.7295 7.02587
491 1 5.21338 18.5511 7.0196
1289 1 7.03282 18.7353 5.12061
1212 1 9.02605 16.9095 4.95924
2010 1 10.6475 16.8661 6.81055
2089 1 9.06995 18.9156 6.72798
2006 1 10.7008 19.0073 4.90934
2012 1 12.4558 17.0445 5.14311
2091 1 12.1167 18.8368 6.64387
2810 1 14.2669 17.225 6.58245
2889 1 14.5147 19.1871 5.24241
2887 1 16.0913 19.0433 3.48092
2812 1 16.4535 16.8272 4.77184
2891 1 16.721 18.6254 6.47754
3610 1 18.3555 17.019 6.49562
3689 1 18.4167 18.863 4.58627
3612 1 20.1743 16.6825 4.74581
3691 1 20.0112 18.704 6.74367
4489 1 21.7794 18.709 4.87351
4410 1 21.6344 16.7465 6.96287
4491 1 23.6422 18.7438 6.57826
4412 1 23.6535 16.8749 5.03452
5289 1 25.5986 18.4788 5.31219
5210 1 25.6748 16.383 6.86055
5212 1 27.1663 16.8969 5.00383
5291 1 27.5842 18.3336 6.76173
6010 1 29.4983 16.8474 6.78646
6012 1 31.4057 16.935 4.85842
6089 1 29.1182 18.6097 4.60641
6091 1 30.5252 18.6663 6.54014
6889 1 32.8934 18.6885 5.05677
6810 1 32.841 17.0495 6.94786
6812 1 34.948 16.7807 4.81771
6891 1 34.8316 18.9543 6.76691
7772 1 1.64416 22.1126 6.62673
7767 1 2.26267 20.5755 5.20693
7769 1 -0.121743 20.4673 7.03073
4961 1 -0.0319515 22.068 4.90901
7847 1 1.63152 23.9297 5.225
7770 1 -0.255779 23.9467 6.89006
569 1 3.85593 22.2143 4.75716
7771 1 3.65877 20.3426 7.01835
1290 1 7.1611 20.7042 6.96589
492 1 5.52089 20.6169 5.3452
571 1 5.33097 22.6023 6.66223
572 1 5.49734 24.18 4.68761
1369 1 7.28896 22.5046 5.25267
1371 1 9.18786 22.496 6.77146
1292 1 8.45533 20.4985 5.0948
2090 1 10.6226 20.6231 6.71466
2169 1 10.202 22.2474 4.60068
1372 1 8.70587 24.4599 4.8953
2170 1 10.5303 24.5289 6.41596
2092 1 12.4728 20.9528 5.02701
2171 1 12.5103 22.7934 6.68069
2890 1 14.3325 20.9501 6.76052
2969 1 14.6977 22.515 4.96163
2892 1 16.4988 20.7139 4.95215
2971 1 16.6578 22.2007 6.7756
3769 1 18.1769 22.6049 4.88392
3690 1 18.2132 20.5085 6.691
2972 1 16.2808 24.0989 5.11721
3770 1 18.3344 24.1891 6.69722
3692 1 19.9338 20.5345 4.96066
3771 1 20.1181 22.265 6.65143
4569 1 21.7751 22.3147 5.00006
4490 1 21.8045 20.5906 6.64938
4571 1 23.7683 22.2882 7.00181
4492 1 23.4876 20.687 4.85816
5369 1 25.3876 22.1764 5.0193
5290 1 25.2418 20.4713 6.72664
5292 1 27.1001 20.4232 4.93504
5371 1 27.3044 21.7855 6.49105
6086 1 29.4466 20.3201 2.86097
6090 1 29.0356 20.413 6.87386
6169 1 29.0961 22.0948 4.8488
6171 1 31.022 22.163 6.85124
6092 1 31.1281 20.5268 5.04932
7766 1 34.8081 22.417 3.18641
6969 1 32.8418 22.1873 4.92737
6890 1 32.7524 20.4623 6.72175
6971 1 34.6517 21.8439 6.85625
6892 1 34.8362 20.4387 4.72311
7851 1 1.18408 26.1911 6.91534
7849 1 36.2645 25.5737 5.04598
7929 1 -0.187226 28.1245 7.08604
7852 1 1.27385 28.1379 4.96449
649 1 3.48118 25.9597 5.16454
570 1 3.56274 24.0554 6.4937
651 1 5.13859 25.6945 6.83617
1450 1 7.13489 27.4247 6.6394
652 1 5.25796 27.6905 4.88868
1370 1 7.07161 24.3797 6.73005
1449 1 7.05721 26.1278 4.66001
1451 1 9.12485 26.2715 6.55527
2249 1 10.7948 26.2271 4.94818
2250 1 11.1879 27.6991 6.9152
1452 1 8.93689 27.9404 4.9172
2251 1 12.6139 25.7646 6.64002
2172 1 12.5173 24.0043 4.7241
2970 1 14.4281 24.3062 7.03623
3049 1 14.568 25.8985 4.91126
3050 1 14.1956 27.3154 6.82593
2252 1 13.0963 27.754 4.59521
3846 1 18.0085 27.6809 2.98053
3051 1 16.3579 25.4872 7.08529
3849 1 18.1581 25.704 4.5737
3850 1 18.2648 27.1084 6.52296
4572 1 23.8128 23.8137 5.07487
3772 1 20.1666 24.1192 5.09113
4570 1 21.9806 23.9713 6.99562
4649 1 20.2917 25.8055 6.73094
4645 1 22.1692 25.6473 4.87705
4651 1 23.6039 25.5445 6.49209
3852 1 20.1207 27.3205 4.71686
4650 1 22.1489 27.4654 6.86623
4652 1 23.8077 27.5089 5.07069
5370 1 25.7501 23.7571 6.9174
5449 1 25.5883 25.5302 5.05365
5372 1 27.2898 23.8276 4.90351
5451 1 27.5265 25.7667 6.31
5450 1 25.4779 27.2348 6.75765
5452 1 27.8203 27.4667 4.83189
6172 1 31.0191 23.6872 5.08715
6249 1 29.5184 25.6404 5.0575
6170 1 29.0639 23.6735 6.6793
6251 1 31.2602 25.3319 6.70026
6250 1 29.4079 27.6588 6.79249
6252 1 30.9827 27.5572 5.38633
6972 1 34.388 23.9431 5.1407
6970 1 33.0679 23.5297 6.96692
7049 1 32.8845 25.6534 5.07027
7051 1 34.8377 25.5606 6.8614
7052 1 35.0659 27.8881 5.24122
7050 1 33.0764 27.7397 6.86351
7926 1 -0.310372 31.5802 3.04297
7927 1 1.61544 29.6447 3.07934
7931 1 1.60897 29.639 7.06109
7932 1 1.60336 31.6265 4.66975
7930 1 -0.265393 31.3075 6.93249
726 1 3.43072 31.2593 2.99661
650 1 3.32682 27.567 6.9044
729 1 3.47206 29.2978 5.13441
730 1 3.20296 31.3034 6.59204
731 1 5.40747 29.419 6.48806
1529 1 7.26347 29.4898 4.82375
732 1 5.05197 31.385 4.87196
1530 1 6.80245 31.1804 6.42325
1531 1 9.20825 29.1275 6.53919
2329 1 10.9139 29.339 5.07979
1532 1 9.19274 31.0087 4.97247
2330 1 10.9321 31.2312 7.06587
2331 1 12.9043 29.5323 6.81385
3129 1 14.862 29.2995 5.036
2332 1 12.9574 31.5203 4.92123
3130 1 14.75 31.4035 7.22315
3052 1 16.3193 27.2364 5.26861
3132 1 16.5942 31.3428 5.12069
3131 1 16.7439 29.1614 6.94429
3929 1 18.3446 28.9539 5.19461
3930 1 18.266 31.46 6.85165
3931 1 20.1818 29.3757 6.66035
4726 1 21.9812 30.6957 3.65801
3932 1 20.0516 31.2685 5.06704
4729 1 22.0655 28.9351 5.09711
4732 1 24.0304 30.9483 5.15093
4730 1 21.7055 31.3637 6.99211
4731 1 23.8338 29.3272 6.8808
5527 1 27.4535 29.2882 3.17978
5526 1 25.9596 31.0741 3.83539
4727 1 24.0601 29.3916 3.24693
5529 1 26.1851 29.0262 5.27768
5531 1 27.8932 29.4332 7.06236
5530 1 25.5613 31.1504 6.95502
5532 1 27.7292 31.1987 5.30887
6329 1 29.4632 29.4359 4.94989
6331 1 31.5484 29.5678 6.88365
6332 1 31.2781 31.2102 5.01046
6330 1 29.4386 31.0183 6.61308
7131 1 -0.0372066 29.7654 5.07468
7129 1 33.1314 29.7793 5.07908
7056 1 34.5626 29.5165 6.82266
7130 1 33.0594 31.6068 7.13796
7132 1 34.6606 31.6121 4.95643
7212 1 1.39787 35.1248 5.25811
7211 1 1.54527 33.2249 6.78091
7209 1 -0.613196 33.4813 4.8537
7210 1 -0.209557 35.1252 6.62086
10 1 3.23297 35.1304 7.14312
9 1 3.23842 33.4495 5.02018
12 1 5.12837 35.1788 4.72507
810 1 6.62079 35.1281 6.91981
11 1 5.12255 33.3359 6.60006
809 1 6.63516 33.426 4.56988
1693 1 10.6901 35.1841 6.23705
812 1 8.52602 35.1827 4.96609
811 1 9.10926 33.3588 6.71603
1610 1 10.6762 32.9601 5.03196
2410 1 14.9666 35.1138 6.76119
1612 1 12.738 34.8339 5.14053
1611 1 12.6171 33.0481 6.64333
2409 1 14.5942 33.3937 5.11907
3210 1 18.2884 35.3785 6.6915
2411 1 16.4997 33.1464 7.16157
2412 1 16.7193 35.0574 4.72222
3209 1 18.5588 33.1999 5.16478
3212 1 20.4411 34.7492 4.72518
3207 1 20.1525 32.9716 3.36581
4007 1 23.8382 32.7455 3.57332
3211 1 20.121 33.2496 6.85615
4010 1 21.9336 35.3653 6.57758
4009 1 22.2301 32.7579 5.12335
4809 1 23.6538 33.2608 6.8579
4012 1 23.7744 35.0629 5.42077
4810 1 25.9446 35.3327 6.48122
5610 1 27.3624 34.8642 4.93458
4812 1 25.7765 33.1434 5.42158
4811 1 27.5635 33.2157 7.05885
5612 1 31.0007 34.7928 5.33921
5616 1 29.4133 35.0359 6.84034
5609 1 29.3594 33.2101 5.09348
5611 1 31.0599 33.0854 6.86409
6409 1 32.9827 33.1272 5.17865
6410 1 33.3349 35.4251 6.64442
6412 1 35.1525 35.3791 4.6185
6411 1 35.1147 33.2138 6.97434
7296 1 1.60187 2.24 8.64808
7295 1 1.62518 0.428961 10.4537
7293 1 -0.228326 0.316931 8.3432
7300 1 1.27525 1.92055 12.0753
7294 1 -0.175615 2.14739 10.1168
6500 1 -0.223851 0.163477 11.7217
94 1 3.33757 2.18745 10.2014
97 1 3.18629 0.56218 12.0111
893 1 6.70686 0.0575055 8.58115
93 1 3.46336 0.694186 8.30299
95 1 5.0628 0.374634 10.1115
96 1 5.2346 2.3248 8.63306
897 1 7.21014 0.330796 11.739
894 1 7.5551 1.86623 9.86737
895 1 9.28202 0.0716075 10.2288
896 1 9.20814 1.7386 8.12844
1690 1 10.7758 -0.182267 8.18403
1694 1 10.9201 1.62271 9.9331
1697 1 10.5362 -0.171882 12.0458
900 1 8.88727 1.75992 11.9044
1696 1 12.9211 1.93796 8.36466
1695 1 12.8789 0.11196 10.5751
2493 1 14.9018 0.420877 8.49845
2494 1 14.59 2.33095 10.2888
2497 1 14.4232 0.29335 12.2099
1700 1 12.385 1.85099 12.0763
2495 1 16.0559 0.354021 10.6254
2496 1 16.5136 2.41197 8.68129
3293 1 17.7503 0.464834 8.54213
3294 1 17.9664 2.09607 10.449
3297 1 18.1473 0.358234 12.1616
2500 1 15.799 2.51212 12.4953
3300 1 19.827 1.91412 11.877
3296 1 19.7655 1.92797 8.51005
3295 1 19.9709 0.161708 10.2056
4094 1 21.7627 2.43088 9.94718
4093 1 21.7314 0.155389 8.74938
4097 1 21.9784 0.423866 11.7287
4016 1 23.737 0.496629 9.89677
4100 1 23.8908 1.95722 12.102
4095 1 23.8019 2.44275 8.55688
4893 1 25.7663 0.433778 8.52731
4894 1 25.7796 2.50394 10.0281
4895 1 27.5898 0.267356 9.93555
4896 1 27.9032 2.27731 8.31199
4897 1 25.3905 0.14719 11.4897
4900 1 27.3971 2.03198 12.0565
5694 1 29.0765 2.03085 10.5022
5693 1 29.6227 0.0405659 8.51476
5695 1 31.2147 0.33301 10.1942
5696 1 31.067 2.16773 8.55535
5700 1 31.2583 1.68726 12.2377
5697 1 29.0751 0.39283 12.1091
6493 1 32.9734 0.511325 8.22093
6494 1 32.6935 2.25035 10.6709
6495 1 34.9092 0.355718 9.82624
6496 1 34.6568 2.55876 8.57164
6418 1 33.0223 -0.240399 12.1314
7298 1 34.6846 1.94279 12.2398
7375 1 1.47988 4.13763 10.6906
7376 1 1.41313 5.78914 8.67456
7374 1 -0.291131 6.05382 10.2429
7373 1 36.2595 4.12452 8.33208
6575 1 -0.412778 3.85809 11.7965
7377 1 1.54574 5.72502 12.3308
7453 1 -0.108276 7.72081 8.50545
173 1 3.32814 4.27271 8.70539
7457 1 -0.493134 7.76394 12.302
174 1 3.1882 5.77017 10.5018
177 1 3.41239 3.80476 12.3625
175 1 4.96419 4.15003 10.0287
176 1 5.20721 6.14029 8.71515
973 1 6.99747 4.07002 8.75746
180 1 5.34086 5.6448 11.9804
974 1 7.09057 5.87432 10.1054
253 1 3.17208 7.64291 8.90633
255 1 5.22927 7.45394 10.7861
977 1 7.04055 3.78349 11.6955
976 1 9.26333 5.56815 8.41178
975 1 9.13876 3.70658 10.3146
1773 1 10.5157 3.86955 7.98879
1774 1 10.9756 5.75447 9.93151
980 1 9.0396 5.38414 12.1501
1777 1 10.7135 3.73536 12.0701
1135 1 10.8498 7.52284 8.3527
1055 1 8.97287 7.31821 10.4632
1778 1 10.5637 7.56355 12.1496
1776 1 13.0557 5.8499 8.48982
1775 1 12.2434 3.68193 10.3966
2574 1 14.4513 5.55768 10.6461
2573 1 14.3658 3.9537 8.4779
1780 1 12.2795 5.35922 12.231
2577 1 14.2439 3.94351 12.035
2653 1 14.6282 7.35863 8.59961
2657 1 14.329 7.3683 11.9941
2576 1 16.4442 5.72177 8.69946
2575 1 16.4401 3.7685 10.4992
3374 1 18.1292 5.61896 10.408
3373 1 18.212 3.98463 8.50697
3377 1 17.841 3.87445 12.215
2655 1 16.3135 7.56451 10.5587
3453 1 18.0624 7.5814 8.65765
2580 1 16.3898 5.67679 12.1315
3380 1 19.7408 5.74977 12.3051
3376 1 19.9377 6.09732 8.74457
3375 1 20.0688 3.92867 10.4323
4173 1 21.8749 3.99565 7.93881
4174 1 21.8635 5.57834 10.2553
4175 1 23.6801 3.857 10.7386
4177 1 21.776 3.89438 11.9075
3455 1 20.2261 7.50825 10.445
4253 1 21.9164 7.61273 8.91367
4096 1 23.7556 5.62893 8.6218
4180 1 23.6224 6.08577 12.3846
4255 1 23.465 7.58096 10.6273
4973 1 25.9452 4.27623 8.539
4976 1 27.4293 5.95071 8.70872
4974 1 25.4239 5.75521 10.4954
4975 1 27.618 3.88231 10.2413
4977 1 25.5663 3.82987 12.5021
4980 1 27.4803 5.96226 12.0492
5057 1 25.8688 7.7208 11.9908
5053 1 25.446 7.30827 8.72158
5853 1 29.2305 7.42829 8.13547
5774 1 29.12 5.86185 10.6443
5773 1 29.6273 4.05613 9.03546
5775 1 31.4113 4.37744 10.6704
5776 1 31.1439 5.8936 8.78075
5780 1 31.034 6.18444 12.0699
5777 1 29.2447 3.8632 12.0339
5857 1 29.2162 7.88974 12.0792
5855 1 30.583 7.74521 10.1429
6573 1 32.6977 3.79376 8.48088
6576 1 34.8695 5.88133 8.43696
6574 1 32.836 6.39857 10.4979
7297 1 33.7696 4.2287 10.4815
6580 1 34.4756 5.59271 12.3671
6653 1 32.9244 7.41767 8.48863
6657 1 33.2547 7.89295 12.5094
6655 1 34.7845 7.63666 10.3212
7455 1 1.51141 7.67255 10.606
7456 1 1.66933 9.27411 8.90517
7460 1 1.43454 9.5687 11.9776
7454 1 -0.403502 9.71468 10.0359
7533 1 0.0824293 11.0908 8.58489
7535 1 1.7223 11.509 10.3026
7537 1 -0.295038 11.4699 11.8089
337 1 3.49925 11.2132 12.3532
257 1 3.48081 7.59407 12.0391
1053 1 7.04016 7.69244 8.68181
254 1 3.25194 9.46895 10.6782
333 1 3.37373 11.3137 8.90478
1057 1 7.19101 7.42398 12.1339
256 1 5.26394 9.01149 8.71235
260 1 5.43142 9.53679 11.9711
1054 1 7.07724 9.12293 10.2083
1133 1 6.80703 10.9533 8.61079
335 1 5.18878 11.7524 10.8043
1137 1 7.46351 11.369 11.7993
1056 1 8.99314 9.19539 8.52867
1854 1 10.7111 9.37506 10.1634
1857 1 8.81942 9.13398 12.3096
1140 1 9.20253 11.2681 10.0066
1933 1 11.2701 11.241 8.41693
1937 1 11.1069 11.1284 12.0494
1856 1 12.8527 9.50203 8.64012
1855 1 12.659 7.50706 10.0264
2654 1 14.5508 9.44421 10.2535
1860 1 12.8509 9.42424 11.8178
2733 1 14.8222 11.4363 8.43029
1935 1 12.7047 11.6006 9.992
2737 1 14.6548 11.5349 11.4877
3457 1 18.1738 7.57055 12.1781
2656 1 16.1672 9.35185 8.5595
2660 1 16.5141 9.34194 11.8653
3454 1 18.2077 9.34304 10.279
2735 1 16.5796 11.2815 10.091
3533 1 18.0829 11.0688 8.40686
3537 1 18.1372 11.3885 12.2353
4257 1 21.8354 7.83164 12.035
3535 1 19.8735 11.189 10.6303
3460 1 20.0728 9.51909 12.1427
3456 1 19.9966 9.27404 8.43492
4254 1 21.8146 9.53608 10.1916
4256 1 23.8943 9.54354 8.72211
4337 1 21.6105 11.2417 12.1934
4333 1 21.8234 11.4775 8.72242
4335 1 23.6001 11.3153 10.414
5055 1 27.8952 7.77988 10.1251
4260 1 23.8887 9.44178 12.0178
5054 1 25.4841 9.33895 10.2857
5056 1 27.4082 8.8984 8.26787
5060 1 27.1785 9.57509 12.0196
5133 1 25.4853 11.1061 8.82513
5135 1 27.1843 10.9855 10.3887
5137 1 25.7202 11.3337 12.1961
5856 1 31.4095 9.37767 8.73235
5854 1 29.0569 9.82454 10.1524
5935 1 31.0025 11.3633 10.3021
5860 1 31.1863 9.77103 12.2062
5933 1 29.1073 11.3744 8.59433
5937 1 29.2451 11.2542 11.8835
6654 1 32.8548 9.11436 10.4901
6656 1 34.6764 9.47777 8.39268
6735 1 34.4509 11.3077 9.99247
6733 1 32.6367 11.5976 8.64468
6737 1 33.0599 11.3497 11.901
6660 1 34.9023 9.64725 11.9053
7536 1 1.54211 13.6296 8.57377
7613 1 -0.306371 15.1777 8.64283
7615 1 1.57589 15.1577 10.3159
7540 1 1.24725 13.2584 12.0063
7534 1 -0.365822 13.0807 9.76048
420 1 3.37258 15.231 12.0578
334 1 3.25438 13.1694 10.7791
413 1 3.60069 14.5353 8.45077
336 1 5.10476 12.7636 8.4058
1134 1 7.14793 12.8522 9.86458
340 1 5.19019 13.5648 12.1109
415 1 5.19896 14.4793 9.95807
1136 1 7.0932 14.6289 8.35255
1217 1 6.93635 14.8227 11.9002
5604 1 9.05468 13.3529 8.50754
1934 1 10.8512 13.0684 10.0023
1219 1 8.78848 13.3653 12.1107
2013 1 10.6235 15.1829 8.68409
1215 1 8.99734 15.0848 10.3359
2017 1 10.8004 15.0259 12.028
1936 1 12.505 13.5321 8.30604
2734 1 14.7759 13.7108 9.83032
2015 1 12.4691 15.0067 10.2295
1940 1 12.4093 13.0799 12.0924
2813 1 14.7242 15.4616 8.08587
2817 1 14.5933 14.531 11.9943
2740 1 16.3081 13.1615 12.2029
2736 1 16.8481 13.2567 8.6249
3534 1 18.2546 13.3215 10.4495
3617 1 17.8293 14.9935 12.4608
3613 1 18.4401 15.2785 8.48454
2815 1 16.7092 15.3144 10.0219
3615 1 19.7226 15.3952 10.5513
3540 1 19.9318 13.0047 12.3196
3536 1 20.0194 13.0676 8.66904
4334 1 21.6894 13.0205 10.4164
4417 1 21.5667 14.8826 12.301
4413 1 21.6248 15.1742 8.64997
4336 1 24.1773 13.0738 8.25465
4340 1 23.5614 12.8208 12.2336
4415 1 23.7501 14.8223 10.6144
5134 1 25.5039 12.8102 10.3764
5136 1 27.3586 13.0964 8.67121
5217 1 25.6151 14.3315 12.4033
5215 1 27.287 14.9084 10.4837
5213 1 25.4225 14.9403 8.92604
5140 1 27.546 12.972 11.9325
5934 1 29.2435 13.3046 10.2037
5936 1 31.1139 13.3739 8.42084
5940 1 30.891 13.2165 12.0384
6013 1 29.0432 15.0159 8.69989
6015 1 30.99 14.9421 10.2656
6017 1 29.0149 14.7482 12.0976
6734 1 32.5708 13.361 10.4502
6736 1 34.2149 13.4328 8.73867
6740 1 34.8037 13.2317 11.9
6817 1 32.8892 15.0924 12.3137
6815 1 34.6114 15.2192 10.0919
6813 1 32.9045 15.212 8.15794
7693 1 -0.225072 18.4379 8.53074
7616 1 1.6141 16.4471 8.43908
7695 1 1.68243 18.761 10.755
7620 1 1.42985 16.734 12.3052
7697 1 -0.123094 19.1107 12.3289
7614 1 -0.184679 16.8201 10.4231
7691 1 3.39071 18.0689 8.52027
414 1 3.1306 16.9484 10.5406
1293 1 3.70564 18.7781 12.2704
416 1 5.2841 16.6527 8.75006
1214 1 7.11529 16.4504 10.0978
493 1 5.58071 18.5196 10.5139
1213 1 5.44262 16.5424 11.8369
495 1 6.91804 18.6372 12.208
1291 1 7.06435 18.529 8.47533
1216 1 9.28792 17.2894 8.60266
2014 1 10.6346 16.8327 10.3896
2093 1 11.0972 18.6742 8.80977
2094 1 8.8099 18.4726 10.5631
1295 1 8.71984 16.692 12.2064
2097 1 10.6039 18.7983 12.0367
2016 1 12.5152 16.6116 8.18596
2095 1 13.1546 18.4658 10.1733
2814 1 14.5453 16.5775 10.2923
2893 1 14.5244 18.6569 8.31316
2897 1 14.623 18.5071 12.1471
3693 1 18.3537 18.4528 8.5245
2820 1 16.2442 17.0295 12.1026
2816 1 16.4323 17.0163 8.36155
2895 1 16.2933 18.7774 10.1712
3614 1 18.1595 17.1049 10.5484
3697 1 18.5302 18.8956 12.6046
3695 1 20.1244 18.6331 10.3437
3616 1 20.1295 16.9982 8.55516
3620 1 19.9471 16.6834 12.3844
4414 1 21.7617 16.8016 10.1515
4493 1 21.8305 18.8508 8.18833
4416 1 23.6618 16.55 8.66807
4495 1 23.8475 18.325 10.2576
4497 1 21.908 18.7236 12.2655
4420 1 23.4107 16.5445 12.1885
5293 1 25.679 18.3385 8.28787
5216 1 27.3664 16.8175 8.63364
5214 1 25.5026 16.4883 11.1369
5295 1 27.309 18.1783 10.9927
5220 1 27.4322 16.7415 12.5444
5297 1 25.3789 18.6742 12.2694
6014 1 29.0624 16.6008 10.8456
6016 1 30.8288 17.0196 8.59386
6095 1 30.9706 18.2474 10.3487
6093 1 28.9483 18.505 8.61956
6020 1 30.9207 16.4438 12.2251
6097 1 29.3591 18.387 12.5475
6897 1 32.6317 18.3402 12.4624
6893 1 32.7722 18.48 8.54911
6814 1 32.7648 16.6783 10.3993
6816 1 34.6244 16.796 8.41236
6895 1 34.7241 18.4944 10.4508
6820 1 34.8769 16.6924 12.2459
7696 1 1.54742 19.9667 8.62191
7773 1 1.70576 21.9383 10.2144
7775 1 1.9154 20.5988 12.3301
7690 1 -0.0969762 22.0745 8.69101
7694 1 -0.592817 20.4323 10.2829
6900 1 -0.398085 21.8725 12.2036
577 1 3.36653 22.5333 12.1822
494 1 3.80618 20.3055 10.3611
573 1 3.69038 22.1826 8.51317
1373 1 6.9584 22.4913 8.38362
575 1 5.13865 22.444 10.5306
490 1 5.27844 20.466 8.53679
1294 1 6.99109 20.6449 10.1253
500 1 5.2854 20.8746 12.6501
496 1 7.07352 22.7316 12.0006
576 1 4.95764 24.2187 8.6039
2173 1 10.8208 22.6987 8.45528
1375 1 8.7768 22.6303 10.0462
1296 1 9.29883 20.2195 8.6834
2177 1 10.7782 20.6649 10.4039
1300 1 10.5458 22.2538 12.0768
1299 1 8.61162 20.5734 11.8435
2894 1 14.3995 20.4284 10.2435
2096 1 12.7575 21.0647 8.64821
2175 1 12.3957 22.8027 10.4403
2973 1 14.4713 22.4591 8.35611
2977 1 14.5982 22.0918 11.8885
2100 1 12.6528 20.3377 11.7487
2176 1 12.4287 24.2886 8.6969
2896 1 16.3444 20.3347 8.69111
2975 1 16.5605 21.9037 10.3999
3773 1 18.3464 22.0998 8.53878
3694 1 18.5179 20.0481 10.7022
3777 1 18.0985 22.1136 12.281
2900 1 16.3351 20.4856 12.3593
3696 1 20.0371 20.4847 8.68355
3700 1 19.933 20.7381 12.5444
3775 1 19.8167 21.9681 10.5914
4494 1 21.751 20.4139 10.3144
4573 1 21.5689 22.1984 8.53801
4577 1 22.0712 21.7937 12.1339
4500 1 23.7735 20.2194 11.8356
4496 1 23.5747 20.027 8.69337
4575 1 23.9311 21.823 10.3341
5296 1 27.0461 20.0993 8.55872
5373 1 25.7661 21.9856 8.62317
5294 1 25.7488 19.7639 10.2955
5300 1 27.6643 20.1046 12.2321
5377 1 25.6089 21.6714 11.8574
5380 1 27.4465 21.4766 10.3825
6096 1 31.0708 20.3866 8.63282
6094 1 29.4803 20.3266 10.5673
6173 1 29.0537 22.2815 8.73652
6175 1 31.1329 22.2046 10.4533
6100 1 30.912 20.5734 12.1128
6177 1 29.2638 22.291 12.272
6973 1 32.6429 21.7614 8.9506
6894 1 32.5299 19.9158 10.7714
6975 1 34.2604 21.9864 10.4205
6896 1 34.3788 20.2944 8.78076
6977 1 32.7643 22.1121 12.2501
6898 1 34.534 20.1729 12.1909
6974 1 32.916 24.0759 10.2783
6976 1 34.7333 23.8402 8.64378
7776 1 1.74915 24.2761 8.30229
7855 1 1.73342 25.8654 10.5856
7780 1 1.22044 23.7018 12.1933
7857 1 -0.209182 25.8631 12.0254
7856 1 1.81666 27.7895 8.85426
7860 1 1.27805 27.7607 12.2572
657 1 3.4877 25.8667 12.0175
7853 1 -0.175146 26.1303 8.64375
7774 1 -0.267155 23.7475 10.3205
7854 1 -0.305307 27.746 10.2945
654 1 3.55336 27.9228 10.3076
653 1 3.50624 26.1405 8.60325
574 1 3.25303 24.0449 10.7134
655 1 5.45942 25.8889 10.4854
1374 1 7.10435 24.0262 9.92705
1453 1 6.87312 26.0542 8.6518
580 1 5.35221 24.3104 12.2693
1457 1 6.97105 26.3448 12.3833
660 1 5.41409 27.7535 12.0303
1454 1 6.84296 27.9677 10.1474
656 1 5.13673 27.791 8.45092
2174 1 10.4964 24.2983 10.4041
1376 1 9.12181 24.6104 8.32494
1455 1 8.61351 26.0913 10.5677
2253 1 10.7586 26.3637 8.50253
1380 1 8.72279 24.2978 11.8848
2257 1 10.641 26.0213 12.3813
2254 1 10.4946 27.6293 10.3344
1456 1 8.56933 28.0063 8.68805
1460 1 8.63582 28.0602 12.0787
2180 1 12.1911 24.2325 12.3275
2255 1 12.2635 26.0095 10.5066
2974 1 14.4015 23.9758 10.6281
3053 1 14.8843 25.702 8.79958
3057 1 14.5003 25.6155 12.3726
3054 1 14.5502 27.3587 10.6261
2256 1 12.8925 27.7172 8.89894
2260 1 12.8061 27.5973 12.4456
3774 1 16.1912 23.9124 12.0659
2976 1 16.643 23.7437 8.65604
3055 1 16.4443 25.9756 10.4473
3851 1 18.0984 25.6853 8.60532
3853 1 18.0619 23.9644 10.4721
3857 1 18.2314 25.8297 12.0776
3854 1 18.5078 27.9514 10.3551
3060 1 16.637 27.6693 11.9568
4574 1 21.9629 23.5619 10.4705
3780 1 20.0897 23.8137 11.9988
4580 1 24.0729 23.8256 12.1412
3776 1 19.8475 24.1016 8.52805
3855 1 20.1641 25.8431 10.4612
4653 1 21.9744 25.5049 8.68692
4657 1 22.0259 25.4473 11.7609
4654 1 22.0974 27.4762 10.5419
3856 1 20.245 27.5367 8.54853
4656 1 23.7912 27.2392 8.57599
3860 1 20.1149 27.6606 12.332
4576 1 23.919 23.8995 8.86266
4655 1 24.2029 25.7319 10.2195
4660 1 23.8465 27.2951 12.1386
5374 1 25.9082 23.7655 10.2466
5453 1 25.7342 25.7433 8.4756
5376 1 27.5176 24.3001 8.40955
5460 1 27.3997 25.7734 10.0897
5455 1 27.2374 23.8577 11.9841
5457 1 25.6503 25.8701 12.2527
5454 1 25.7472 27.6869 10.3272
6253 1 27.4775 27.3817 8.36367
5539 1 27.3448 27.6343 12.1611
5375 1 29.3785 24.0028 10.2578
6180 1 31.0765 24.0604 12.012
6174 1 29.5883 25.5543 8.44054
6176 1 31.1091 23.8269 8.45211
6255 1 30.9791 25.7052 10.4336
6257 1 29.0841 25.9093 11.9578
6254 1 29.2751 27.6702 10.0882
6256 1 31.1436 27.634 8.75082
6260 1 31.2584 27.6103 11.7374
7053 1 32.8621 25.7866 8.64205
6980 1 34.8685 25.8098 10.1856
7057 1 33.0021 25.8091 11.8627
7060 1 34.9361 27.5799 12.0149
7777 1 34.7129 23.8246 12.1905
7055 1 34.7231 27.5957 8.43389
7935 1 1.74221 29.6218 10.3989
7936 1 1.7861 31.3551 8.58514
7940 1 2.06396 31.1989 12.4503
7934 1 0.0608919 31.6041 10.6998
7933 1 -0.248065 29.5503 9.0041
7937 1 -0.108122 29.8314 12.194
733 1 3.45792 29.6709 8.56686
734 1 3.54503 31.5213 10.1671
737 1 3.07797 29.2132 12.5077
735 1 5.26896 29.5903 10.3419
1533 1 6.86981 29.5209 8.21211
736 1 4.95487 31.5927 8.41335
1534 1 6.96923 31.3039 10.1176
1537 1 7.0144 29.9035 12.1089
740 1 5.01212 31.4603 12.0833
1535 1 8.77752 29.945 10.2716
2333 1 10.5374 29.6711 8.65998
2337 1 10.8696 29.9406 12.3229
1536 1 8.88 31.6026 8.18393
2334 1 10.4519 31.5698 10.5501
1540 1 8.57584 31.519 12.3303
2335 1 12.6928 29.2305 10.7927
3133 1 14.4232 29.2363 8.83991
3137 1 14.7198 29.2008 12.1132
2340 1 12.3763 31.7394 12.0473
2336 1 12.4674 31.9927 8.89857
3134 1 14.2652 31.4216 10.5668
3056 1 16.2852 27.6097 8.70726
3136 1 16.6651 30.7607 8.59664
3135 1 16.3767 29.2939 10.1302
3933 1 19.06 29.7477 8.62306
3937 1 18.5988 29.3987 12.5505
3140 1 16.478 31.1859 11.5067
3934 1 18.3766 31.2434 10.1186
3936 1 20.3379 31.8499 8.82372
3935 1 20.281 29.2519 10.4826
3940 1 20.2654 31.4673 11.7277
4733 1 22.0142 29.4435 8.35658
4737 1 21.9726 29.6716 12.0689
4734 1 22.135 31.1454 10.3172
4736 1 23.7698 31.123 8.39403
4735 1 23.8835 29.1847 10.4719
4740 1 23.6847 31.2597 12.0482
5533 1 25.6431 29.0323 8.40302
5535 1 27.761 29.6202 10.1659
5537 1 25.246 29.6113 12.2127
6333 1 28.0675 31.5779 8.36709
5536 1 25.4185 30.8908 9.91378
4817 1 27.2728 31.4975 11.6523
5456 1 29.5012 29.7016 8.62601
6335 1 31.13 29.7175 10.3145
6337 1 29.2688 29.3384 12.0934
6334 1 29.1707 31.4913 10.3815
6340 1 31.1019 31.2504 12.2874
6336 1 31.2688 31.3765 8.53455
7054 1 33.3261 27.6276 10.3212
7133 1 32.9807 29.3999 8.67469
7135 1 34.5587 29.5083 10.485
7137 1 33.0325 29.4546 11.9871
7140 1 34.8525 31.8305 12.1518
7134 1 32.9431 31.5409 10.4692
7136 1 34.8023 31.2313 8.81715
7216 1 1.34111 35.1459 8.77949
7215 1 1.61862 33.2836 10.7977
7214 1 -0.333945 34.8305 10.2424
7217 1 -0.25495 33.491 12.4381
7220 1 1.50804 35.3193 12.1627
7213 1 -0.0940306 32.9856 8.80677
13 1 3.03191 33.2492 8.4716
17 1 3.39301 33.4294 12.4076
14 1 3.24078 35.4618 10.4129
16 1 5.07755 34.7109 8.76478
20 1 5.37686 35.5425 11.8843
814 1 7.28206 35.2674 10.3133
15 1 4.975 33.4214 10.7509
813 1 7.03328 33.3847 8.6096
817 1 6.89162 33.3716 11.9781
1614 1 10.6859 34.9273 10.0766
816 1 8.77767 35.1032 8.40052
815 1 8.6816 33.1061 10.4742
1613 1 10.6095 33.2796 8.72013
1617 1 10.6085 32.9457 12.4215
820 1 8.94454 35.0773 12.3306
2414 1 14.8691 34.9453 10.3626
1616 1 12.8447 35.1475 8.74612
1615 1 12.5661 33.8372 10.5582
2413 1 14.2586 33.1569 8.51678
2417 1 14.5575 33.4392 12.1009
1620 1 12.6546 35.1193 12.4614
2415 1 16.6137 32.9128 9.9131
2416 1 16.4867 35.2353 8.48795
3214 1 18.2762 35.4841 10.5012
3213 1 18.4195 33.3958 8.44814
3217 1 17.8131 33.4538 11.8211
2420 1 16.4018 35.2727 12.2788
3215 1 19.8858 33.7528 10.6295
3216 1 19.9621 35.2214 8.40394
3220 1 19.8933 35.3998 12.2417
4014 1 21.9212 35.0408 10.1673
4013 1 22.0227 33.4546 8.36899
4011 1 23.8658 35.2501 8.19369
4020 1 23.6906 35.2985 11.7805
4017 1 22.2342 33.2513 11.6486
4015 1 23.8806 33.3532 9.7286
4816 1 27.26 35.1862 8.3014
4814 1 25.6419 35.0522 10.1388
4813 1 25.5605 33.4973 8.37947
4815 1 27.4928 33.6323 10.1273
5534 1 25.2724 33.3744 11.6066
4820 1 27.4595 34.8769 12.1123
5613 1 29.6295 33.4335 8.65847
6414 1 31.5579 35.0227 7.8875
5614 1 29.1976 35.404 10.4123
5615 1 31.1737 33.8441 10.422
5617 1 29.2797 33.3199 11.998
5620 1 31.0915 35.3051 12.1147
4164 1 33.0633 35.4228 10.2108
6413 1 33.1512 33.2479 8.66506
6416 1 34.6857 35.1369 8.60301
6415 1 34.4358 33.3876 10.5573
6420 1 34.8865 34.9998 12.2185
6417 1 32.7829 33.7679 12.3067
7302 1 1.49545 1.99041 15.6728
7299 1 1.43289 0.420396 14.0196
6499 1 -0.40688 0.149677 15.933
7379 1 -0.263841 2.13575 13.9177
98 1 3.37102 2.3341 14.191
100 1 5.36754 2.15605 11.7432
101 1 3.55019 0.164472 15.7902
99 1 5.02076 -0.0893345 13.9842
102 1 5.42359 1.8384 15.5601
901 1 7.08257 0.0319211 15.67
898 1 7.14576 2.08734 13.6749
899 1 8.78058 0.486045 13.6361
904 1 8.69009 2.17173 15.4915
1701 1 10.3611 0.357951 15.6109
1698 1 10.8167 2.00994 13.9749
1699 1 12.1062 0.0146407 14.0585
1704 1 12.4837 1.83903 15.5406
2501 1 14.5013 0.16606 15.7502
2498 1 13.9707 1.70076 13.8858
2504 1 16.1423 2.00336 15.6908
2499 1 16.2238 0.421565 13.9535
3301 1 18.2617 0.766823 15.8261
3298 1 17.8054 2.05846 13.9495
3304 1 20.125 2.39414 15.7398
3299 1 19.8481 0.802914 13.9351
4098 1 21.5898 2.22967 13.8622
4101 1 22.0651 0.275398 15.3281
4099 1 23.2533 0.309658 13.5987
4104 1 23.8321 2.15828 15.4253
4898 1 25.6407 1.24701 13.5253
4901 1 25.4475 0.301736 15.6194
4899 1 27.6965 0.335614 14.2748
4904 1 27.4186 2.15976 15.7125
5698 1 29.0437 2.03753 13.7505
5701 1 29.3471 0.265641 15.991
5699 1 30.9637 0.326396 14.1743
5704 1 31.2185 2.08199 15.4399
5779 1 30.9744 3.99543 13.879
6498 1 32.8726 2.14069 13.8922
6501 1 33.1292 0.175318 15.5907
7301 1 34.9313 0.225005 13.9271
6504 1 34.7471 1.81106 15.9556
7381 1 1.46135 3.80153 14.0426
7384 1 1.53947 5.44201 15.8649
178 1 3.94957 5.75196 13.9851
181 1 3.20925 3.84681 16.0965
7378 1 -0.391988 5.75074 13.8649
7304 1 -0.491678 3.6904 15.5976
7380 1 1.68095 7.77593 13.551
179 1 5.54835 3.87353 13.7866
184 1 5.35383 5.82065 15.7595
981 1 6.87487 3.94629 15.6973
978 1 7.09775 5.61451 13.9071
259 1 5.45292 7.62763 13.7291
979 1 8.96629 3.89944 14.0858
982 1 8.8228 5.6796 15.752
984 1 10.8768 5.88811 14.1435
1781 1 10.9727 4.24892 16.1623
1059 1 9.08967 7.53024 13.9202
1779 1 12.3919 3.72607 13.9928
1784 1 12.6498 5.79692 15.9574
2578 1 14.2769 5.61888 14.1597
2581 1 14.0035 3.70195 15.9114
2584 1 15.842 6.01589 15.9677
2579 1 15.8512 3.98684 14.2457
3381 1 18.0959 3.60476 15.5203
3378 1 18.0506 5.63006 14.0799
3461 1 18.24 7.25461 16.1222
3384 1 19.9617 5.56293 15.5927
3459 1 20.2171 7.73082 14.0366
4179 1 23.46 3.76878 13.5766
3379 1 19.811 3.6997 13.6736
4181 1 21.8316 4.09764 15.4492
4178 1 21.5935 5.745 13.4052
4184 1 23.6477 5.80583 15.6353
4261 1 21.7749 8.2268 15.8057
4981 1 25.5439 3.84575 15.0595
4978 1 25.2893 5.96915 13.663
4979 1 27.5625 4.10226 13.4957
4984 1 27.2197 5.88055 15.3968
5061 1 25.5589 7.29911 15.5731
5781 1 29.4022 3.97379 15.2579
5778 1 29.3264 5.97499 13.78
5784 1 31.5035 6.22821 15.4722
5859 1 31.126 8.0768 13.64
6577 1 32.6981 4.05634 12.475
6578 1 32.9313 5.88281 13.9533
6581 1 32.8163 4.12975 15.6211
6584 1 34.7885 5.40207 15.4093
6579 1 34.6384 3.64042 13.8032
6661 1 33.0608 7.93047 15.8703
6659 1 34.7423 7.91004 14.2824
7461 1 -0.0289059 7.66211 15.5432
7464 1 1.49679 9.82434 15.4734
7539 1 1.49199 11.5015 13.8
7458 1 0.0177378 9.53254 13.6153
7541 1 -0.309254 11.6294 15.4644
341 1 3.24049 11.5059 15.3101
7459 1 3.60236 7.63385 15.6438
258 1 3.5987 9.4102 13.8459
1058 1 7.05462 7.70211 15.5364
264 1 4.74115 9.89863 15.9103
1060 1 7.01668 9.82582 13.719
1142 1 6.88763 11.2863 15.6267
339 1 5.49352 11.4939 13.6321
1861 1 10.4642 7.7445 15.8478
1141 1 8.76952 9.52331 15.4055
1858 1 11.1244 9.22515 13.6219
1139 1 9.16746 11.3821 13.4904
1941 1 10.8325 11.2161 15.2513
2661 1 14.0677 7.78305 15.8806
1859 1 13.0161 7.52829 13.9971
1864 1 12.4743 9.51206 15.4625
2658 1 14.5976 9.37455 13.3251
2741 1 14.3547 10.8636 15.0732
1939 1 12.8034 10.9937 13.5777
2659 1 15.9984 7.437 13.6838
2664 1 16.07 8.96596 15.6445
3458 1 18.1761 9.1476 14.082
2739 1 16.3781 10.9984 13.662
3541 1 17.8946 10.8874 15.7202
3464 1 19.7756 9.1165 15.9942
4258 1 22.1599 9.50464 13.8873
4262 1 22.0373 11.0609 15.6945
3539 1 19.799 10.6536 14.2132
4339 1 23.8036 11.1651 13.96
4259 1 23.217 7.44067 13.8883
5059 1 27.5689 7.71526 13.7249
4264 1 23.8182 9.04806 15.4141
5058 1 25.5167 9.13855 13.6505
5064 1 27.4669 9.45044 15.7278
5141 1 25.1511 11.2526 16.0061
5139 1 27.2872 11.5508 13.9938
5861 1 29.3251 7.98343 15.36
5858 1 28.8247 9.83499 13.8324
5864 1 30.9124 9.92924 15.4032
5939 1 30.8614 11.5387 13.8014
5941 1 29.0229 11.1551 15.7745
6658 1 33.1871 9.68443 13.8581
6664 1 35.0225 9.95927 15.7281
6739 1 34.7318 11.5328 13.7953
6741 1 32.9687 11.3913 15.9176
7617 1 -0.399853 14.8114 11.5507
7621 1 1.79551 13.1291 15.6706
7619 1 1.69962 15.2158 14.1127
7538 1 -0.206345 13.38 13.8085
7624 1 -0.00238604 14.8419 15.5291
7623 1 3.40794 15.3314 15.9279
417 1 3.36219 13.5797 13.7741
338 1 5.33057 12.8116 15.6561
1138 1 7.22458 13.1755 13.8186
419 1 5.27891 14.8459 14.2696
1221 1 7.46128 15.0252 15.872
1144 1 8.85665 13.0766 15.7599
1938 1 10.5523 13.3141 13.7866
2021 1 10.8205 14.6123 15.4632
1224 1 8.95095 15.0577 14.0415
6419 1 34.6871 33.3488 13.9489
1944 1 12.8544 12.7324 15.3742
2738 1 14.8172 12.9844 13.9862
2019 1 12.5529 14.5838 14.025
2821 1 14.6054 14.6969 15.6604
2819 1 15.9128 15.3467 13.8566
2744 1 16.508 12.7983 15.9596
3538 1 17.5851 13.0627 13.8354
3621 1 18.3017 14.5136 16.1408
3619 1 19.8428 14.6072 14.0647
3544 1 19.6022 12.7428 15.5578
4338 1 21.3693 12.8165 13.9514
4421 1 21.4489 14.8625 15.888
4344 1 23.1938 13.3952 15.6104
4419 1 23.82 15.094 14.033
5138 1 25.3052 12.9702 14.1062
5144 1 27.0729 12.8322 16.0947
4341 1 25.4512 14.8547 15.8466
5219 1 27.2158 14.5083 14.0388
5938 1 29.0733 12.9809 14.0815
5944 1 30.7352 13.0916 15.8338
6021 1 28.6657 14.5539 15.9982
6019 1 30.7637 14.9209 14.111
6424 1 34.8814 35.1901 15.8095
6738 1 32.782 13.1724 14.0532
6744 1 34.5786 13.1035 15.5779
6819 1 34.7833 15.2258 14.0822
6821 1 32.8085 14.7189 15.8774
418 1 1.73031 17.2961 15.5153
7700 1 1.71883 18.5866 13.6078
7618 1 -0.410754 17.3225 14.1462
7701 1 -0.0443428 18.7064 15.7826
2326 1 8.95433 33.3965 -0.320438
497 1 3.58779 16.9177 13.9305
7699 1 3.79822 18.1695 16.1261
424 1 5.49521 16.8389 15.7018
1301 1 5.49909 18.6302 13.8946
1218 1 6.82801 16.523 13.5763
1302 1 7.66556 18.6651 15.7659
1303 1 9.16809 17.0014 15.2791
1220 1 10.8793 16.6255 13.592
2018 1 10.8514 18.8384 15.4834
1297 1 8.91044 18.8697 13.6087
2020 1 12.8498 16.7822 11.8694
2024 1 12.5074 16.8581 15.4087
2818 1 14.3026 16.6762 13.7052
2901 1 14.2505 18.1815 15.4913
2099 1 12.5652 18.485 13.6738
2899 1 16.224 18.2756 14.3311
2824 1 16.3576 16.3721 16.1386
3618 1 18.3312 16.2064 14.3406
3701 1 18.1561 18.5648 15.6896
3699 1 19.9168 18.3545 14.308
3624 1 20.1341 16.6287 16.297
4418 1 21.6565 16.7282 14.1781
4501 1 21.889 18.5393 15.9536
4499 1 23.8867 18.351 14.3892
3943 1 20.2259 29.5376 17.0035
4424 1 23.7921 16.4123 16.0125
5218 1 25.5522 16.7479 13.9183
5224 1 27.1703 16.2986 15.816
5301 1 25.4801 18.3611 16.1679
5299 1 27.0822 19.015 14.3794
263 1 5.07992 7.99909 17.2709
6018 1 28.8852 16.2763 14.282
6024 1 31.2091 16.2881 16.16
6099 1 30.4839 18.0796 14.8798
6101 1 28.5486 18.6136 16.099
6421 1 32.8484 33.4386 15.6209
6818 1 32.7511 16.7593 14.0992
6901 1 32.7834 18.4507 15.8639
6824 1 34.4353 16.7409 15.6276
6899 1 34.3813 18.6701 13.9654
7704 1 1.75291 20.2516 15.7886
7779 1 1.58005 22.0968 13.9776
7698 1 -0.278944 20.4208 14.3847
7781 1 -0.0526352 22.2695 15.7974
581 1 3.58197 22.4399 15.9131
498 1 3.45085 20.6667 14.2234
579 1 5.31216 22.563 14.0863
501 1 5.18925 20.5788 15.9404
1381 1 7.15531 22.4492 16.0519
642 1 7.02909 20.8843 13.8452
1377 1 8.67631 22.3433 13.7544
1298 1 9.02198 20.6677 15.8039
1304 1 11.1947 22.6353 15.3067
2179 1 10.6301 20.6956 13.9795
2978 1 12.5531 21.9524 13.5789
2101 1 12.3755 20.3882 15.2372
2898 1 14.4435 20.3144 14.0995
2981 1 14.2571 22.1299 16.0633
2184 1 12.5259 24.381 16.0265
2904 1 16.1578 20.2492 15.9006
2979 1 16.2474 22.4467 14.1003
3781 1 17.8869 22.9219 15.7607
3698 1 17.8677 20.589 14.4541
3704 1 20.047 20.3525 15.8238
3779 1 19.8972 21.9811 14.3617
4581 1 22.252 21.8388 15.7751
4498 1 22.093 20.1357 14.2315
4579 1 23.5119 22.3178 13.8347
4504 1 24.1259 20.2385 15.9556
5298 1 25.3508 20.5647 14.0982
5381 1 25.4444 22.1333 15.94
5304 1 27.2058 20.3853 16.4382
5379 1 27.2618 22.1249 13.783
5782 1 29.2378 6.273 16.5302
6098 1 29.2312 20.1427 14.1645
6181 1 28.9053 22.0427 15.8156
6179 1 30.9179 22.2123 13.7533
6103 1 30.8891 20.3391 15.9927
6981 1 32.6996 22.2793 15.7565
6104 1 32.5393 20.2287 14.1559
6904 1 34.776 20.4502 15.9085
6979 1 34.6021 21.9354 13.8416
6984 1 34.3133 23.8925 15.7679
7784 1 1.34451 23.9906 15.6205
7859 1 1.4602 25.9833 13.7005
7861 1 36.6399 25.632 15.4158
7778 1 -0.550711 23.8198 13.8852
7864 1 1.61157 27.7491 15.5917
7858 1 -0.449869 27.564 14.1224
658 1 3.37507 27.7384 13.9097
578 1 3.34828 24.0124 13.8339
584 1 5.10454 24.2008 15.8352
661 1 3.00405 25.6469 15.5823
1378 1 7.0876 24.1608 14.0018
659 1 5.27646 25.9657 14.0754
1461 1 7.08453 25.8908 15.9522
1458 1 7.0911 28.025 14.1014
664 1 5.69098 27.6992 16.0432
5618 1 29.3783 35.2994 14.0848
2178 1 10.2366 24.1326 13.8654
1384 1 8.98142 24.2034 15.9289
1459 1 8.78966 26.2673 14.0064
2261 1 10.8786 26.1457 16.0361
1464 1 8.9668 28.1088 15.6783
2258 1 10.607 27.9544 13.6595
2259 1 12.3166 26.0916 14.3556
2980 1 14.3069 23.5527 14.0144
3061 1 14.2794 25.9005 15.5684
3058 1 14.6751 27.6511 13.796
2264 1 12.732 27.7681 15.7957
2984 1 16.0803 24.5392 15.9369
3059 1 16.2707 25.9301 13.9336
3778 1 18.2114 24.2438 13.8146
3861 1 18.0508 26.077 15.5028
3858 1 17.9615 27.9585 14.0131
3784 1 20.4752 23.9945 15.6852
4578 1 21.8429 23.8389 13.6265
3859 1 20.0273 25.7768 13.9206
4661 1 21.9321 25.6849 15.3577
4659 1 24.0165 25.6611 14.0332
4658 1 21.9968 27.4143 13.5951
5619 1 30.9948 33.2614 13.7014
4584 1 23.2782 23.9438 15.5518
5378 1 25.5426 24.0735 13.8498
5461 1 25.5568 25.805 15.8726
5459 1 27.5813 25.831 14.0934
5384 1 27.3208 23.754 15.8099
5464 1 28.0668 27.8447 15.784
5458 1 26.0032 27.5409 14.5202
5624 1 30.9182 35.0207 15.771
6184 1 30.9113 24.1939 15.7798
6178 1 28.8864 24.1495 14.1118
6261 1 29.2949 25.8716 15.9897
6259 1 30.6944 26.121 13.6914
6258 1 28.8884 28.0927 13.7585
6978 1 32.6657 24.3735 13.8403
7061 1 32.6778 26.2024 15.4164
7059 1 34.6434 26.1378 13.9375
7064 1 34.5688 27.6099 15.7929
7058 1 33.1031 27.7695 13.572
7939 1 1.24388 29.4033 14.14
7941 1 36.5553 29.2176 15.9358
7944 1 1.65568 31.14 16.061
738 1 3.68232 31.2745 14.3666
7938 1 -0.275573 31.3775 13.9852
4819 1 29.261 33.2331 15.7571
741 1 3.50794 29.5305 15.9304
739 1 5.18041 29.0761 13.987
1541 1 6.81094 29.7497 15.94
744 1 5.34869 31.5359 16.4018
1538 1 6.58029 31.276 14.0265
1539 1 9.08023 29.6937 13.8006
2341 1 11.0548 29.4161 15.8794
1544 1 9.10459 30.9114 15.8049
2338 1 11.1098 31.5004 14.203
2339 1 12.8994 29.3663 14.0325
3141 1 14.599 29.2875 15.5058
3138 1 14.5644 31.4636 13.3309
2344 1 12.9308 31.2558 15.4789
3064 1 16.1907 27.5752 15.7597
3139 1 16.4025 29.7005 13.5802
3941 1 18.1188 29.5801 15.5788
3144 1 16.0225 31.1945 15.4104
3938 1 17.9792 31.5635 13.2135
3864 1 20.0389 27.7088 15.2965
3944 1 19.6948 31.4436 15.5086
3939 1 20.0758 29.8752 14.0204
4741 1 21.9019 29.3054 15.2401
4738 1 21.8722 31.6877 13.5429
4664 1 23.5098 27.3165 15.8186
4739 1 23.9429 29.6905 14.1522
4019 1 23.7958 31.4052 15.3513
5541 1 25.5936 29.6973 15.7784
5540 1 27.1956 30.0018 13.9376
5538 1 25.6634 31.8721 13.3159
5544 1 27.3671 31.33 16.2407
6264 1 30.8287 27.7046 15.8069
6338 1 29.3715 31.3564 13.9613
6341 1 29.2841 29.7746 15.6463
6339 1 31.1463 29.2914 13.7709
6344 1 31.6009 31.2847 15.6339
7144 1 34.8962 31.1353 15.9771
7138 1 33.1602 31.3272 13.8591
7141 1 33.1917 29.3808 15.5514
7139 1 34.8815 29.542 13.6836
5361 1 27.7054 33.3124 13.7778
7218 1 -0.0705052 35.2869 14.0026
7221 1 -0.319792 33.1866 15.6328
7224 1 1.56298 35.3809 15.8457
7219 1 1.48145 33.1426 14.272
21 1 3.74014 33.1395 15.7672
18 1 3.23426 34.8537 14.1632
24 1 5.26771 34.9419 15.4484
818 1 7.23208 35.2598 13.9351
19 1 5.17995 33.3847 13.6687
821 1 7.11142 32.7811 15.6909
824 1 8.7778 34.6126 15.7127
1618 1 10.6544 35.0446 14.2097
819 1 9.01111 32.9961 14.1416
1621 1 10.8532 33.3275 15.8575
2418 1 14.4275 35.0809 14.0173
1624 1 12.5607 35.0106 15.6161
1619 1 12.8714 33.3151 13.7759
2421 1 14.5968 33.6296 15.6927
3218 1 18.1324 35.6159 14.1545
2424 1 16.5201 35.8323 15.8622
2419 1 16.3959 33.1567 13.8025
3221 1 18.4034 33.6765 15.6921
3219 1 19.8428 33.3243 13.7877
4822 1 23.2754 35.2863 15.407
3224 1 20.0065 35.553 15.8044
4018 1 21.8267 35.1291 13.4226
4021 1 21.605 33.2975 15.4996
4821 1 25.3446 33.4354 15.0512
4824 1 27.509 35.0355 15.5212
4024 1 23.4488 33.3604 13.8731
4818 1 25.4961 35.432 13.4911
3303 1 20.3779 0.705584 17.1083
5063 1 27.2606 7.73252 17.1591
4983 1 27.8627 4.03816 16.9677
5863 1 31.0105 7.67948 17.0822
6663 1 35.1555 7.43627 17.1921
1064 1 10.6066 9.59376 17.317
4742 1 21.6908 31.5185 16.8367
4662 1 21.7433 27.7853 17.2166
2342 1 11.0804 31.2666 17.4194
4023 1 25.0128 34.9971 17.0662
5542 1 25.3359 31.2663 17.4609
2023 1 12.5836 15.2668 16.9401
4025 1 23.4141 33.1869 16.8959
6422 1 32.8896 35.1514 17.2968
3705 1 18.2048 20.648 17.1615
242 1 3.40413 9.25608 -0.361146
105 1 1.5332 2.0827 19.3437
189 1 1.4285 0.0440042 21.3357
7226 1 -0.353843 0.329333 19.2226
7306 1 0.367792 2.27225 21.1599
7305 1 1.81643 0.512162 17.5355
28 1 3.52531 0.420371 19.3772
110 1 3.0489 2.15726 21.257
905 1 7.30462 0.211586 19.4893
912 1 6.91691 2.20102 21.2024
108 1 5.43689 1.9964 19.4678
107 1 5.21349 0.338677 21.1778
103 1 5.5589 0.1818 17.4847
104 1 7.63898 1.8091 17.4995
185 1 3.58115 1.8924 17.2523
908 1 8.76093 1.91172 19.6115
1705 1 10.5832 -0.00575212 19.0976
987 1 10.6757 2.10081 21.1211
907 1 9.19701 0.216189 21.0712
1702 1 10.1424 1.76312 17.4907
2743 1 16.2556 10.8524 17.2322
1708 1 12.2492 2.11593 19.4873
2507 1 14.0191 0.237028 19.504
1707 1 14.0292 1.96986 21.3476
1706 1 12.446 0.00322547 21.2461
2505 1 13.7798 2.13759 17.9287
1703 1 12.2639 -0.0412827 17.5459
2508 1 15.8204 2.3742 19.4428
3305 1 18.3484 0.179364 18.9198
3230 1 18.1039 2.15453 20.8314
2509 1 16.2776 0.361119 20.6073
1061 1 6.65596 9.70648 17.4004
4903 1 27.3614 0.228989 17.4653
1783 1 12.4873 4.15443 18.0197
3308 1 19.6308 2.52562 18.78
3306 1 20.0303 0.352747 20.8694
4105 1 21.5433 0.358982 19.3792
3392 1 23.3356 0.508797 21.0132
4109 1 21.7426 2.12447 21.1454
4108 1 23.3733 2.34998 19.6324
7548 1 1.45963 15.0052 17.2549
983 1 8.55458 4.05114 17.5259
4905 1 25.0838 0.590117 19.087
4908 1 27.3952 2.24065 19.1571
4906 1 25.4443 2.09739 20.9837
4907 1 27.6198 0.358251 20.8499
4985 1 25.5873 3.74338 19.1781
5570 1 31.9812 35.0099 30.8703
5382 1 25.2118 23.9839 17.5153
5622 1 29.2476 0.388163 19.1488
5708 1 31.1782 2.00073 19.3159
5706 1 29.5783 1.95878 20.9107
5705 1 30.9228 -0.0108833 21.0179
5703 1 31.1394 0.233182 17.4306
1069 1 7.13897 13.2415 17.272
6502 1 32.7446 2.00833 17.6414
6505 1 32.9605 0.130168 19.3828
5707 1 32.9335 2.16977 21.1416
6508 1 34.7117 2.22873 19.0423
6507 1 34.6258 -0.0686794 20.8256
6503 1 34.4698 0.0127278 17.7011
7303 1 -0.186015 2.00996 17.4984
7383 1 1.58266 3.52298 17.4664
7388 1 1.6061 5.71033 19.1835
7392 1 1.9163 4.54201 21.4832
265 1 3.55317 7.8236 19.1278
7382 1 -0.284295 5.38478 17.5354
6674 1 -0.230737 5.62148 20.896
7385 1 -0.181532 3.73432 19.1232
7465 1 -0.256648 7.3738 19.3603
186 1 3.38001 4.13585 19.2891
188 1 3.62379 6.13737 20.8065
106 1 4.9787 3.93983 21.1696
7463 1 3.3144 5.93815 17.2149
182 1 5.00354 5.8233 18.8054
902 1 7.16877 3.99755 19.4906
192 1 6.3369 5.85494 20.7656
3622 1 18.339 16.6149 17.7198
183 1 5.20578 3.56663 17.5058
3302 1 17.7049 2.65269 17.4818
989 1 8.97303 3.91552 21.2684
986 1 8.36967 6.04477 19.5686
1788 1 9.88207 3.91497 19.3129
988 1 10.2564 5.90788 21.2199
5062 1 25.3493 9.10007 17.4924
1947 1 10.5185 7.78819 19.2626
2582 1 14.0742 5.73431 17.8529
4422 1 22.0137 16.7451 17.9816
5221 1 27.1449 14.5754 17.6133
2585 1 13.906 3.90602 19.9834
1782 1 12.1567 5.88533 19.51
2506 1 12.2221 4.17189 21.445
2586 1 14.3384 5.75239 20.9905
2588 1 16.3547 5.61217 19.3186
2587 1 16.0308 3.81044 21.507
3385 1 17.3755 3.88631 19.7092
2668 1 17.87 5.71955 21.3593
3465 1 18.1662 7.60192 19.082
2746 1 16.2996 7.74001 21.0569
261 1 1.43415 7.4863 17.5349
3387 1 19.9612 3.88519 21.3716
4342 1 21.6506 12.8784 17.3153
6822 1 32.9068 16.451 17.9041
3388 1 19.4214 5.27494 19.3932
4185 1 21.3524 3.87713 19.4269
4186 1 21.6796 5.67312 21.5911
4187 1 23.5482 4.03403 21.4702
2073 1 33.0472 34.2103 35.4558
4263 1 23.7675 7.25153 17.4956
4265 1 21.4301 7.23745 19.2252
2663 1 16.1791 7.57593 17.5338
4188 1 23.1986 5.23443 19.3857
4988 1 27.3263 5.9427 19.0098
4986 1 25.8794 5.35271 20.9443
5070 1 26.4482 7.80718 21.2496
4987 1 27.9482 3.64115 20.97
2022 1 10.7527 16.9039 17.1286
2982 1 14.3066 24.5417 17.566
2823 1 16.5841 14.7077 17.9155
5785 1 29.5081 4.16547 18.7229
5788 1 31.3677 5.85873 19.0672
5067 1 29.1907 5.97029 20.4574
5867 1 31.073 7.84173 21.1958
5783 1 31.4283 3.95184 17.389
6442 1 34.1403 33.0445 32.7071
422 1 3.58725 16.6755 17.8778
2503 1 15.8578 0.625273 17.9503
6585 1 32.9128 3.96259 19.3635
6588 1 34.5994 5.62235 19.4707
6587 1 34.9011 3.55169 21.0054
6586 1 32.9208 6.14574 21.1371
6665 1 33.0977 7.71978 18.9091
6582 1 33.0074 5.99281 17.2758
3223 1 20.1511 33.406 17.2996
6583 1 34.7092 3.94928 17.5227
2103 1 12.6558 18.3807 17.5595
7467 1 1.55114 7.43273 21.2377
903 1 8.67458 -0.150919 17.3446
7468 1 1.31102 9.13945 19.3215
7545 1 -0.0949643 11.1122 19.2501
7466 1 -0.304173 9.55343 21.2137
345 1 2.77926 11.3428 19.2128
2320 1 2.94446 9.44795 21.078
3463 1 21.5114 8.94871 17.8516
7462 1 -0.217515 9.5675 17.3772
267 1 4.77829 7.98382 21.5391
985 1 6.60859 8.10162 19.5741
268 1 4.87061 9.59973 19.2282
1065 1 6.93091 9.60297 21.377
1063 1 8.58331 7.68411 17.5223
1079 1 8.51185 7.77509 20.8932
1862 1 8.67731 9.45002 19.2467
990 1 10.3641 9.44074 21.5873
1950 1 10.5033 11.1594 19.0344
343 1 8.50317 11.2701 20.956
3551 1 18.2064 12.6783 17.5176
1223 1 8.75374 11.427 17.4449
5143 1 26.8544 10.9556 17.6087
4343 1 23.4771 10.7295 17.6304
2598 1 34.3045 30.7422 34.2813
1865 1 12.0789 7.66358 21.3714
2665 1 13.7589 7.72935 19.3809
1943 1 12.6106 11.2669 17.4647
1945 1 12.1063 9.48673 19.4874
3546 1 14.1587 9.26724 21.2995
1868 1 12.4703 11.2794 21.2251
2745 1 14.3543 11.0164 19.6651
23 1 5.33657 33.1394 17.7443
2667 1 16.3768 9.56207 19.3745
3386 1 18.3096 9.19932 21.3623
3470 1 18.398 11.3317 19.4574
2672 1 16.3458 11.3918 20.7727
3382 1 20.0157 7.27445 17.6519
3462 1 17.9467 9.1518 17.4065
4503 1 23.7006 18.784 17.6438
3543 1 20.0612 10.9266 17.5361
1379 1 12.4542 22.3494 17.6555
3473 1 19.9066 7.20417 21.4826
3468 1 20.0318 9.05145 19.5595
4266 1 21.3995 8.84404 21.3138
3466 1 19.9907 11.0124 21.4059
3548 1 21.5308 11.0101 19.526
4268 1 23.5444 8.94776 19.5235
4272 1 23.9623 7.1428 21.2996
5065 1 25.6093 7.5627 19.3096
6022 1 29.2336 16.7226 17.4935
7543 1 1.27282 11.4639 17.3719
4345 1 22.9993 10.8335 20.9949
5068 1 27.0208 9.1857 19.2919
5066 1 24.9651 9.50965 21.174
5145 1 25.3309 10.6986 19.3208
5147 1 27.0155 10.6131 21.2305
5865 1 29.1932 7.33388 18.6748
5943 1 30.9583 11.3817 17.4512
5868 1 30.9201 9.13625 19.19
5866 1 28.925 8.87145 20.8637
6827 1 31.1328 10.8603 20.9137
5945 1 29.0243 10.7966 19.8749
2662 1 14.4512 9.52845 17.6697
6662 1 32.7459 9.76555 17.4369
6667 1 34.8084 7.51146 21.2214
6668 1 34.8823 9.09436 19.5395
6666 1 32.9771 9.61619 20.9762
6745 1 32.8794 11.2697 19.2538
6747 1 34.7059 11.3204 21.193
6743 1 34.5572 11.3294 17.6033
266 1 -0.0926039 12.1542 21.3907
7544 1 3.67854 13.3267 17.2483
7627 1 1.45719 13.1429 18.9456
342 1 1.51068 15.0644 21.0953
7547 1 34.7956 13.2493 22.9769
7625 1 0.00848462 14.8237 19.4112
7630 1 3.2681 13.4596 21.4731
425 1 3.1655 14.7721 19.4431
7942 1 -0.0128813 31.6319 17.5775
2583 1 18.2198 5.408 17.3991
4502 1 22.0948 20.1509 17.8095
440 1 5.08766 11.0752 21.3748
272 1 6.61146 11.1729 19.248
1066 1 4.81074 12.8074 19.5879
7636 1 6.76541 13.171 20.9428
423 1 7.17007 14.8521 19.3545
7631 1 5.08452 14.9545 20.9896
5303 1 27.5116 18.8194 18.0911
1148 1 9.01007 12.9814 19.4009
1229 1 10.7974 13.1417 21.2241
1149 1 8.78806 14.6374 20.9909
2025 1 10.8829 14.488 19.1867
1942 1 11.0162 12.981 17.175
1948 1 12.5831 12.624 19.211
3553 1 14.5284 13.103 20.8157
2027 1 12.7333 14.5258 21.1949
1226 1 14.4346 14.6217 18.9587
6742 1 32.5935 13.0781 17.6946
4583 1 23.3616 22.0327 17.5918
3545 1 16.2518 12.9337 19.0502
3471 1 18.1783 13.1841 21.0113
2039 1 16.4074 14.5669 21.0488
3625 1 18.5047 14.8492 19.2865
3542 1 20.1629 12.7978 19.1807
344 1 4.78417 11.0973 17.595
2742 1 14.3695 12.793 17.3995
3626 1 19.9782 15.3663 21.0651
2903 1 15.9067 18.4089 17.2725
4346 1 21.7288 13.003 21.2611
4425 1 21.6662 14.7019 19.3783
1401 1 21.9022 21.694 34.1829
4427 1 23.5313 14.419 21.0412
7862 1 -0.293777 27.591 17.5076
4348 1 23.4106 12.9361 19.373
5148 1 26.812 12.697 19.3829
5227 1 25.1878 12.2865 21.1698
5225 1 25.3945 14.749 19.1219
6029 1 27.4716 14.3151 21.3437
5383 1 27.3451 22.5341 17.8686
5816 1 28.079 34.2555 34.9883
5948 1 30.5456 12.6439 19.5482
5947 1 28.9048 12.607 21.4768
6027 1 30.9074 14.657 21.0545
5223 1 28.7764 14.6064 19.6277
5222 1 25.3824 16.6862 17.9294
7542 1 -0.48936 13.2478 17.3961
6748 1 34.7053 13.1426 19.3498
6672 1 32.9883 12.5908 21.2615
6825 1 32.6135 14.4831 19.4813
6828 1 34.6835 14.7186 21.2845
6823 1 34.9324 15.1267 17.5604
421 1 5.22828 15.0356 17.4519
7703 1 1.71969 18.6545 17.4478
7632 1 1.68677 16.9276 19.3384
426 1 1.68257 18.7127 20.8393
7705 1 -0.285633 18.0686 19.4008
352 1 3.20793 16.8417 20.9284
505 1 3.72378 18.5783 19.344
7626 1 -0.163059 16.7688 21.1334
1863 1 12.1505 7.76985 17.2811
507 1 5.26287 16.4951 19.5955
511 1 5.55939 18.9427 21.0361
1225 1 7.22896 17.2705 21.0142
508 1 7.26239 18.7826 19.3652
1222 1 5.91763 18.6083 17.5666
6023 1 30.559 14.3273 17.9017
7628 1 -0.0432309 16.8456 17.3025
2935 1 30.923 32.2506 31.9926
2105 1 8.9942 18.5951 21.2344
1305 1 8.86371 16.779 19.477
348 1 10.6844 18.6898 19.3469
1228 1 10.84 16.4237 21.0511
3062 1 14.2577 27.8908 17.7353
2112 1 12.5533 16.2252 19.2459
2102 1 14.5835 18.5174 19.3144
2191 1 12.5858 18.1513 20.8609
2036 1 14.7798 16.0234 20.7583
4072 1 22.7474 10.9286 35.1028
2825 1 16.4828 16.5177 19.2972
2828 1 16.2013 18.2526 20.9838
1150 1 17.986 18.622 18.9873
2906 1 18.0452 16.6389 20.6401
4183 1 23.6317 3.58707 17.2469
3552 1 19.5053 18.3223 20.6535
1382 1 7.26858 24.3162 17.7727
3707 1 20.0985 16.7887 19.2403
4505 1 21.7087 18.805 20.0287
5305 1 21.7409 16.4668 21.213
4428 1 23.5963 16.3715 19.5394
4582 1 21.5278 23.7053 17.7329
2983 1 16.1061 22.0923 17.1677
4354 1 23.7285 18.377 21.1653
4507 1 25.8815 16.7928 21.1648
5228 1 27.4063 16.645 19.3006
5307 1 25.5564 18.5157 19.5102
5226 1 27.3321 18.7727 20.8486
1622 1 10.6397 34.9436 17.4117
6028 1 31.0485 18.3143 17.5422
6105 1 29.4738 18.8994 19.4927
6025 1 30.9402 16.3666 19.1509
5229 1 29.4503 16.643 20.9531
6107 1 31.1701 18.6062 21.1458
2692 1 27.8095 -0.210212 32.4989
6905 1 32.869 18.3887 19.4599
7622 1 34.7529 16.5492 19.6886
6907 1 34.6151 18.7494 21.1297
6826 1 32.7301 16.5685 21.0378
7143 1 35.0369 29.2445 17.8509
7708 1 1.29514 20.2921 19.2647
7706 1 -0.315548 20.0809 21.2106
586 1 1.34323 22.0356 21.0257
7785 1 -0.573416 22.2748 19.6635
585 1 3.7411 22.1914 19.1144
7783 1 1.79801 21.9724 17.5963
7702 1 -0.263387 20.5251 17.6485
502 1 3.52662 20.4152 17.7727
499 1 7.25743 20.38 17.4441
587 1 5.39252 20.5654 19.0895
506 1 3.51045 20.3133 21.0001
1386 1 6.83572 22.3569 19.117
675 1 7.1923 20.599 20.9044
1311 1 5.44776 22.2755 21.2956
583 1 5.37006 22.2371 17.4364
1385 1 8.78086 20.8078 19.1366
1463 1 10.9061 22.1343 19.389
2189 1 9.03183 22.3378 21.0497
1308 1 10.5329 20.5254 20.9741
1383 1 9.00362 22.5951 17.3954
2098 1 10.79 20.7492 17.2759
6191 1 35.9139 20.5736 35.2945
2181 1 12.7469 20.3919 19.3556
2902 1 14.6077 22.4576 19.2601
2910 1 14.4436 20.1609 20.8695
2985 1 12.8045 22.0704 21.0839
4744 1 23.2828 29.7239 17.0809
2905 1 16.0776 20.3652 19.0833
3785 1 16.0299 22.3834 21.0212
3702 1 17.236 22.3795 19.1254
3787 1 18.0466 20.3204 20.65
6343 1 31.0601 29.4833 17.363
6903 1 34.6444 18.3423 17.7031
1468 1 8.8027 25.9484 17.4558
262 1 3.10726 9.54455 17.2418
2914 1 19.7285 22.3973 20.6934
3708 1 19.8288 20.5799 19.4337
4585 1 21.935 21.9933 19.7326
4587 1 23.5825 22.351 21.3087
6102 1 29.5479 20.8399 17.7781
4508 1 23.5786 20.2345 19.7163
2224 1 28.8591 0.0417777 35.3771
5385 1 25.7207 22.4308 19.2809
5308 1 27.5024 20.6233 19.599
5309 1 25.4228 20.377 21.3171
5387 1 27.7087 22.5614 21.0133
2356 1 29.805 34.3683 30.8544
6185 1 29.5261 22.5124 19.5462
6108 1 31.2947 20.5016 19.3483
6187 1 31.2377 22.4606 21.4094
6106 1 29.3068 20.4508 21.0734
1567 1 1.6666 2.03179 35.1039
6183 1 30.8323 22.4452 17.6215
6982 1 32.6617 24.0693 17.8528
6985 1 33.1353 22.4236 19.4532
6908 1 34.8691 20.1743 19.2227
6987 1 34.33 22.4805 21.7216
6909 1 33.1176 20.6686 21.0743
6902 1 32.9258 20.1258 17.5391
6983 1 34.5476 22.3317 17.6887
7782 1 -0.0673823 23.8791 17.7754
7788 1 1.70856 23.9614 19.4924
7867 1 1.70341 25.8351 21.2629
7865 1 -0.162954 26.0126 19.359
7786 1 -0.154102 24.2932 21.128
7868 1 1.93201 27.5733 19.5945
7866 1 -0.120486 27.6937 21.3639
7863 1 1.39564 25.7449 17.455
663 1 5.58744 25.9635 18.0316
582 1 3.26281 24.1601 17.4999
588 1 5.01574 24.1019 19.339
665 1 3.25717 25.9179 19.3439
7711 1 3.38667 23.7168 20.9785
1465 1 7.317 26.2478 19.4298
667 1 5.13775 25.9348 21.2001
668 1 5.59336 27.8332 19.57
666 1 3.50926 27.5671 21.4186
591 1 7.19314 24.3539 20.8818
1462 1 7.13046 27.8926 17.7966
1466 1 7.06371 27.7513 21.5438
2262 1 10.7434 27.9086 17.6132
5821 1 29.6676 35.2296 33.0264
1467 1 8.95557 24.3487 19.3623
2265 1 10.7692 26.4315 19.3595
1470 1 9.26065 26.2059 20.9355
2108 1 10.7088 23.9042 21.2253
1472 1 8.77869 28.0168 19.6123
2266 1 11.0383 27.704 21.4447
2182 1 10.7288 24.4463 17.7897
3383 1 19.9937 3.98379 17.2749
2188 1 12.5765 23.9862 19.5033
2263 1 12.6576 26.1593 17.6388
2267 1 12.597 25.8359 21.1991
3065 1 14.216 25.8421 19.6621
2990 1 14.3965 24.1761 21.1893
2361 1 6.95519 33.9482 35.1192
6182 1 29.21 24.0294 17.3768
2988 1 16.1043 24.5862 19.1486
3066 1 16.1877 25.8891 21.3203
3865 1 17.8923 26.3354 19.0961
2987 1 18.1468 24.2688 20.5641
3068 1 16.0725 27.9579 19.637
6262 1 29.2613 27.7428 17.6817
2343 1 12.6809 29.7215 17.4346
3328 1 9.95013 0.463587 35.3418
4588 1 23.3684 23.8549 19.2706
3866 1 20.1066 27.619 18.9513
3788 1 20.0208 24.8445 19.088
3867 1 20.2123 25.8911 20.934
4665 1 21.9912 25.7755 19.4895
4586 1 22.0299 24.1889 21.3814
3868 1 21.7564 27.8291 20.5741
4743 1 23.5622 28.0142 19.0156
4667 1 23.6955 25.9749 21.098
5392 1 25.6508 24.2449 20.971
5465 1 27.2295 24.7105 19.1232
4668 1 25.0676 25.6809 19.2825
5467 1 27.6379 25.9028 21.1173
5466 1 25.4573 27.6802 21.0924
5468 1 26.9097 27.5422 19.4238
2104 1 14.2378 20.0227 17.3136
1623 1 12.9552 32.8361 17.4248
5463 1 27.6263 26.2091 17.5064
6186 1 29.5378 24.2706 21.4056
2422 1 14.7803 35.2118 17.5231
6263 1 31.1234 25.8402 17.6529
6188 1 31.0568 24.1686 19.6836
6265 1 29.1602 25.708 19.3768
6267 1 31.303 25.9324 21.4725
6268 1 30.8577 27.6186 19.3845
5702 1 29.3659 2.08953 17.135
6986 1 32.8719 24.3271 21.1489
7065 1 32.7618 25.9815 18.9815
6988 1 34.7745 24.3349 19.5938
7067 1 34.8377 26.0897 21.3244
7066 1 32.9289 27.7487 21.6135
7068 1 34.4642 27.7333 19.4877
2524 1 3.6817 0.544092 35.032
7063 1 34.7535 25.7049 17.53
4182 1 21.9859 5.66815 17.4291
4823 1 27.3815 33.496 17.2193
7947 1 1.94487 29.6074 21.2033
746 1 3.65326 31.2947 21.2698
7948 1 1.82353 31.5156 19.4159
7945 1 0.168564 29.6413 19.6825
7946 1 0.550573 31.4917 21.1611
742 1 3.4274 31.3335 17.6754
1542 1 7.35995 31.6347 17.8998
662 1 3.82137 27.5805 17.4724
743 1 5.29728 29.5034 17.8608
745 1 3.59772 29.4607 19.4529
1545 1 7.13795 29.697 19.7385
747 1 5.26799 29.6004 21.3293
748 1 5.36732 31.3548 19.5475
752 1 7.09848 31.0341 21.6229
5744 1 34.6311 3.17824 35.0675
2345 1 11.0818 29.6647 19.3016
1548 1 9.1689 31.4818 19.1766
1546 1 8.77369 29.5493 21.4147
1419 1 35.9599 23.6506 35.0773
2346 1 10.6788 31.2401 21.3638
2911 1 15.771 9.80804 35.2543
1785 1 10.5371 6.07693 17.4659
2268 1 12.7434 27.8007 19.4384
3145 1 14.2218 29.6285 19.1839
2347 1 12.3868 29.6391 21.4274
2348 1 12.9974 31.4264 19.3783
3151 1 18.5054 27.9261 20.8823
5340 1 34.6298 7.50191 35.0673
3945 1 16.7111 29.9109 20.7564
3947 1 18.5945 29.8231 18.8417
3147 1 18.2009 31.9005 21.1211
3148 1 16.4264 31.8921 19.3594
3948 1 20.1849 31.6289 19.0728
5462 1 25.4837 27.8052 17.2657
5543 1 27.4244 29.2045 17.7596
5644 1 23.4126 32.4117 33.8762
458 1 19.7763 -0.681127 35.0641
3872 1 20.4102 29.6648 20.9053
4745 1 21.5501 29.729 18.9824
4747 1 23.5095 29.6033 20.9999
4746 1 21.9084 31.7937 20.9543
4748 1 23.5162 31.3722 18.7904
5545 1 25.2085 29.596 18.8191
5547 1 27.3879 29.5679 20.6528
5546 1 25.2874 31.35 20.4809
5548 1 27.0495 31.3707 19.1258
3703 1 19.7334 18.6714 17.7797
3631 1 21.8596 6.04576 35.4892
3874 1 23.9342 34.7231 34.1186
6342 1 29.2772 31.2831 17.5223
6266 1 29.3889 27.6233 21.1966
6345 1 29.1919 29.5708 19.1997
6347 1 30.9401 29.4005 21.2812
6348 1 30.9071 30.967 19.2397
6346 1 28.9039 31.7207 20.8616
7145 1 32.8545 29.3798 19.4879
7147 1 34.945 29.3258 21.3637
7148 1 34.8879 31.5037 19.3357
7146 1 33.1549 31.7413 21.1929
7142 1 32.8027 31.1089 17.6081
7222 1 -0.100191 34.9351 17.2752
7223 1 2.13577 33.51 17.4392
7307 1 1.71785 35.339 19.1661
7227 1 1.82192 33.6527 21.341
7228 1 -0.329398 35.2761 21.2446
7225 1 0.351785 33.3198 19.2561
25 1 3.53508 33.2391 19.4268
823 1 8.80362 33.5672 17.8091
26 1 3.7746 35.3429 20.8289
22 1 3.71489 35.1663 17.474
822 1 6.93702 35.0124 17.6469
825 1 5.3992 35.2371 19.2201
829 1 7.14923 34.7906 21.4821
27 1 5.13775 33.2331 21.3222
826 1 6.95136 33.1685 19.5478
3783 1 19.4805 22.3345 17.8973
1626 1 10.9158 34.7505 21.1623
828 1 9.11607 34.8498 19.8191
1625 1 10.9702 33.2248 19.184
827 1 8.92807 32.8064 21.1688
3757 1 19.1149 6.09467 35.0457
2423 1 16.3971 33.2551 17.0924
1628 1 12.3974 34.8767 19.2345
1632 1 12.7923 32.9355 21.0109
2425 1 14.3837 33.3419 19.162
2426 1 14.7487 35.1812 21.0681
2627 1 17.621 31.3727 35.8132
3142 1 14.861 31.4993 17.4474
2428 1 16.5839 35.1357 19.2703
3225 1 18.4273 33.1581 18.8334
3226 1 18.2068 35.2158 20.7722
5098 1 18.9981 18.5909 35.3085
3946 1 20.1495 33.4903 21.0565
4982 1 25.3536 5.11575 17.0724
3228 1 20.0772 34.9445 18.8328
3227 1 22.0366 33.0846 18.8607
4026 1 21.8358 35.275 20.6782
220 1 11.3041 4.67056 34.7214
7567 1 0.744392 18.8825 34.8508
3222 1 17.8346 35.3345 17.3427
4027 1 23.6215 33.3389 20.8221
4028 1 23.5725 35.2536 18.6359
4826 1 25.5033 35.2424 20.936
4828 1 27.1513 35.2995 19.0618
4825 1 25.2481 33.0978 18.9426
5552 1 26.9483 33.4729 20.5297
503 1 9.13421 15.2399 17.4847
5241 1 7.18333 20.635 36.0884
2290 1 22.9458 27.9848 34.7345
4827 1 29.1753 35.0332 20.81
5628 1 31.1751 34.9578 19.2332
5625 1 29.0746 33.1362 19.1722
5627 1 31.1076 32.7558 20.7829
7001 1 14.5746 33.4281 34.3046
6423 1 34.7576 32.9594 17.4663
6426 1 33.0661 34.4819 20.858
6428 1 34.8321 34.5993 19.0181
6425 1 33.0112 33.0731 18.9003
6427 1 34.92 33.249 20.978
7232 1 1.66798 -0.23494 25.1883
109 1 1.15621 1.54985 23.6111
7401 1 36.1326 1.54038 24.8953
7309 1 36.4505 -0.145391 23.1884
5017 1 1.49858 1.88591 26.153
7308 1 3.46142 0.115361 22.6508
5633 1 3.41477 1.71863 24.7008
7396 1 5.59537 0.556848 24.5245
112 1 4.68325 2.25047 22.7155
7390 1 7.15816 0.345949 22.5293
909 1 5.35002 3.70767 25.0645
32 1 7.51415 1.803 24.4892
1630 1 8.96864 2.03374 22.8347
1715 1 10.8259 -0.106806 23.0893
993 1 10.0464 2.30365 25.0219
1877 1 12.6337 0.549673 24.7986
3315 1 8.29249 3.23038 26.4862
916 1 12.1335 4.18705 24.6953
1558 1 14.6314 2.02645 24.1326
1712 1 12.5558 2.2727 23.3126
1790 1 14.0848 1.43532 26.493
1709 1 14.1936 0.137192 22.7116
2364 1 14.3716 35.9451 26.9322
4120 1 16.1581 1.52344 22.4246
3232 1 18.1184 0.219976 22.6826
2594 1 17.7858 2.1001 24.4285
2676 1 15.9165 0.145924 24.4523
5720 1 17.836 0.318913 26.1439
3957 1 19.7942 0.395826 24.8547
1720 1 19.9379 1.86214 22.9376
4189 1 21.8491 1.76477 24.9003
4032 1 21.9658 0.450071 22.8565
4115 1 19.8878 3.64362 24.6525
4116 1 24.0152 1.92876 22.8881
3231 1 23.864 0.389233 24.3942
3307 1 25.7557 0.152552 22.5069
5069 1 26.2226 1.50002 24.4265
6593 1 27.4937 1.84655 22.5805
1955 1 24.0875 3.78397 24.5907
5713 1 27.9438 0.196159 24.058
5560 1 29.614 2.29141 24.6948
5630 1 29.6915 0.440488 22.993
6506 1 31.3034 2.29701 22.776
7469 1 31.2143 -0.891277 24.4537
7481 1 31.3645 4.10922 24.4181
6509 1 33.0236 -0.290954 22.7894
4191 1 32.7225 1.35285 25.008
6516 1 34.5238 -0.21278 24.932
7394 1 34.99 1.86438 22.4723
7399 1 1.19607 5.9063 23.1128
190 1 1.40295 3.64398 24.4565
116 1 -0.526238 3.62246 23.0063
5256 1 1.29933 5.5426 25.6198
6590 1 -0.683202 5.47258 24.5326
5804 1 35.8289 3.44388 26.2529
7386 1 3.317 3.82796 23.164
275 1 3.83268 5.58156 24.9972
196 1 5.26757 5.52754 22.9183
187 1 6.99509 3.83451 22.6681
281 1 6.54404 5.88004 25.0004
3394 1 6.45404 7.57085 26.5975
3401 1 8.31132 4.56353 24.6022
3488 1 8.3644 6.26364 22.7553
606 1 10.3618 3.91211 23.1334
34 1 10.397 5.92356 24.6742
374 1 14.0148 6.04006 24.8481
1866 1 12.455 6.04287 23.0115
2510 1 13.94 4.2758 22.9377
3396 1 14.2657 7.60366 23.0956
2614 1 14.5063 8.45638 25.3868
2596 1 16.0129 5.99217 22.916
834 1 15.8138 4.01802 24.275
3390 1 18.1096 3.71444 23.0636
4110 1 17.7253 5.31766 24.9331
4351 1 16.5355 7.38002 24.8978
2511 1 19.5087 5.72521 22.9862
4364 1 22.1133 3.15655 23.0996
2201 1 21.6091 5.44948 24.5744
4192 1 24.0429 5.62255 23.3102
4112 1 26.0236 3.7098 22.6473
4434 1 23.3895 7.08382 24.6719
1393 1 26.137 5.8791 24.668
4107 1 27.4692 5.92132 22.7903
148 1 27.8332 4.18869 24.3819
5787 1 31.0006 4.01963 20.8916
3258 1 29.2735 5.84749 24.341
4909 1 29.3242 3.93169 22.5937
6671 1 31.1179 7.77925 25.2009
4992 1 30.8913 5.87173 22.4805
5709 1 33.0484 4.31603 22.5456
7312 1 33.7867 3.32604 24.6127
6589 1 32.9784 5.76304 24.7656
5875 1 34.7534 5.79319 22.9106
7472 1 34.4154 5.36286 26.5539
5872 1 32.7653 7.83934 22.8927
269 1 3.27843 7.06144 23.0922
7552 1 1.77387 7.8196 24.87
270 1 1.58326 9.42576 23.0091
222 1 -0.120144 9.50305 24.9566
7470 1 -0.402094 7.51623 23.13
7479 1 1.7112 11.0455 24.7806
1146 1 3.59317 9.43774 24.5231
7414 1 4.97573 7.71187 24.6029
997 1 6.77692 7.71177 22.5176
347 1 5.69182 9.75055 23.1681
2757 1 7.03865 9.37658 25.0482
353 1 6.83374 11.6546 22.9623
3656 1 5.34644 11.3022 24.6475
6208 1 7.10953 11.1492 26.8373
1867 1 10.1506 7.72993 23.2041
913 1 8.39429 7.40477 24.7257
1949 1 8.76756 9.65875 23.3521
1062 1 10.6153 9.77511 24.9925
1872 1 10.8265 11.7846 22.8971
1791 1 8.86323 11.1072 24.9382
7633 1 8.7473 8.83524 26.4308
1874 1 12.414 8.02026 24.7752
2592 1 12.3801 9.5613 22.9231
2512 1 14.5156 10.348 23.9375
2589 1 12.7518 11.0002 25.099
1071 1 13.9213 12.0878 22.8681
5078 1 12.481 9.2582 26.8291
4193 1 17.961 7.61787 23.0342
3549 1 16.4757 9.35471 22.7236
4271 1 18.3755 9.44467 24.9056
4998 1 16.7063 11.1809 25.2985
6680 1 18.1972 11.115 23.0584
435 1 18.7462 10.8282 27.3476
2674 1 17.3177 6.79231 27.3658
2109 1 20.0033 7.29528 25.0514
5567 1 21.6704 7.3196 22.9901
5953 1 19.8951 8.93479 23.0644
1095 1 21.5439 8.93815 25.0188
4996 1 23.3858 8.97337 23.2474
5151 1 22.9706 10.7896 25.008
3467 1 19.7517 11.3755 24.7384
4989 1 25.4062 7.6006 23.1953
6514 1 24.9411 8.938 25.2428
5951 1 27.4404 11.4266 24.9446
5880 1 27.8869 7.49874 24.9719
2836 1 25.0303 10.7839 23.3198
5146 1 27.2035 9.36507 23.5562
4994 1 29.4867 7.75622 22.9405
5792 1 31.2015 9.53013 23.0157
838 1 29.0541 9.39783 24.8973
5794 1 29.1439 10.6791 23.132
4916 1 30.8145 11.0701 24.6602
5879 1 34.9494 7.77484 25.2808
6592 1 32.88 9.3739 25.2649
277 1 34.678 9.40263 23.06
6750 1 33.1961 11.1173 23.7846
3732 1 35.1116 8.77988 27.1648
1312 1 3.58092 11.3676 23.3201
6676 1 36.3666 11.2197 23.4645
349 1 1.4415 12.7827 23.1961
6911 1 1.49562 14.9372 24.6648
4439 1 3.29183 13.2371 24.6286
7546 1 -0.536664 13.2694 25.0233
2275 1 3.64495 15.1564 23.104
7475 1 5.13322 13.0444 22.8699
1147 1 7.29133 13.2009 24.8577
7476 1 5.31334 15.113 24.8971
510 1 6.73307 14.9901 22.4794
7715 1 7.37312 14.9434 26.4417
2113 1 8.96224 13.1729 23.0277
6851 1 10.4344 13.1461 25.1245
2804 1 11.0238 14.9824 23.0453
1315 1 9.24668 15.1332 25.0138
430 1 12.6166 13.4287 24.1921
2748 1 14.8052 12.9434 24.9882
2028 1 14.6679 14.5808 22.8759
2751 1 12.8501 15.3272 25.0939
3469 1 16.1534 12.7661 23.0033
3706 1 18.2053 13.2585 24.9557
2838 1 16.1763 14.7442 24.569
3547 1 17.9828 14.9334 22.7816
3800 1 16.711 13.2199 26.7929
4352 1 21.6186 10.7059 23.0507
2832 1 19.9728 13.3916 22.7762
4432 1 19.755 14.9001 24.516
3716 1 21.6195 12.6388 24.4377
4431 1 21.8212 14.811 23.019
4673 1 23.5201 14.6227 24.4639
2194 1 20.2123 12.8218 26.6398
5400 1 22.7842 12.7361 26.6409
4347 1 23.3759 12.4429 22.76
4270 1 27.0013 12.4766 23.0462
3797 1 25.2049 13.0634 24.3302
6034 1 25.558 14.5064 22.5692
6831 1 27.3599 14.5615 24.4777
4520 1 25.4593 14.8834 26.4593
5952 1 31.0084 12.961 22.7746
5946 1 29.0257 14.4364 22.9619
7873 1 31.2231 14.6302 24.6531
6038 1 29.2289 12.832 24.3427
6031 1 31.2075 13.1847 26.5455
3711 1 29.2287 14.6307 26.4451
7551 1 34.6266 11.3459 25.3523
6746 1 32.7974 14.6505 22.8487
7391 1 33.0144 13.3437 24.7509
346 1 -0.398944 14.9842 22.9958
4194 1 34.7749 15.0621 24.7116
518 1 33.2803 15.2614 26.3695
6832 1 1.47517 16.5279 22.8809
7409 1 1.81651 18.5854 24.6086
593 1 -0.121686 18.2308 22.7561
6120 1 -0.0578819 16.8023 24.7039
1068 1 3.3194 16.5488 24.6832
4521 1 1.44418 17.215 26.506
509 1 3.24773 18.1792 22.7131
2666 1 5.52164 16.9722 22.8919
7723 1 5.15839 18.4889 24.5833
433 1 7.30213 16.3833 24.1871
432 1 6.99241 18.9194 22.8169
596 1 9.03013 16.2711 22.7208
3493 1 10.8226 16.8352 24.7564
1332 1 8.96489 18.208 24.1693
1233 1 10.7674 18.3861 22.7059
2747 1 12.934 16.4547 22.7448
3721 1 14.6511 16.8695 24.4316
930 1 12.9205 18.5168 24.3548
2107 1 14.4299 18.445 22.4566
1469 1 14.7414 18.9023 26.3449
2114 1 16.0628 16.4913 22.6555
1316 1 17.8363 16.8593 24.3367
3791 1 18.008 18.7349 22.4467
3478 1 16.3593 18.7299 24.3971
6189 1 18.1805 18.424 26.3793
517 1 16.1956 17.045 26.1104
4506 1 21.7865 18.6819 22.7113
4433 1 20.031 16.9849 22.8619
4593 1 20.0306 18.8664 24.4031
4426 1 23.7841 18.383 24.3278
5876 1 21.7689 16.6439 24.5069
1399 1 21.7258 18.461 25.9881
3007 1 23.8155 16.5986 22.712
2063 1 19.6721 16.5186 25.8914
5310 1 25.4544 16.2914 24.5669
2916 1 27.6624 16.5674 23.0029
3627 1 25.5312 18.5781 23.0408
5719 1 27.0417 18.4588 25.0115
6193 1 27.3077 16.6118 26.4922
4674 1 25.3223 18.2456 26.01
6109 1 29.2464 18.4941 22.7946
6026 1 30.8678 16.6101 22.9782
6112 1 31.2455 18.4738 24.8428
6994 1 29.0959 17.0425 24.7577
7629 1 29.2105 18.4827 26.9236
6278 1 30.7963 16.8531 26.4881
5232 1 32.8676 16.5796 24.6048
351 1 34.4686 18.1284 24.8907
6111 1 34.6624 16.405 22.8149
5399 1 32.8808 18.6542 23.1156
431 1 1.61607 20.13 22.7025
755 1 1.18354 21.5912 24.7922
7707 1 -0.204759 21.9563 22.6686
7789 1 -0.27259 19.8852 25.3507
2998 1 -0.158855 21.957 26.8365
6360 1 3.52533 20.2612 24.2418
674 1 3.2303 22.1131 22.5554
7790 1 5.18418 22.3501 24.6164
1473 1 5.27855 20.6191 23.0312
520 1 7.40596 22.3276 22.9681
7712 1 6.75924 20.791 25.0598
2454 1 5.44744 19.838 26.8053
1387 1 8.79335 20.2886 23.1344
1397 1 10.9944 22.0687 22.6257
2915 1 9.12059 22.5407 24.9213
1145 1 13.2554 20.7004 26.1997
2183 1 12.4618 20.305 22.7339
2030 1 14.6457 22.4309 23.1209
3953 1 14.537 20.3573 24.4199
133 1 12.6888 22.599 24.6248
2677 1 14.2422 22.8254 26.2534
3152 1 14.8872 24.2086 24.3562
3796 1 16.2577 20.4773 22.3711
2989 1 16.7258 22.4183 24.4172
4594 1 17.9416 20.324 24.4603
2908 1 17.9624 22.1634 22.5495
2187 1 18.3904 22.4432 26.34
2273 1 20.0053 20.3128 22.7467
5473 1 19.8888 22.6331 24.3326
5398 1 21.9409 20.3053 24.412
4589 1 21.4051 21.9604 22.2714
4512 1 23.7372 20.3313 22.8808
4609 1 23.3868 22.2199 24.3183
7637 1 20.2345 20.4416 26.1129
4029 1 22.2557 22.3589 26.1138
5322 1 27.2533 20.3255 22.7739
5306 1 25.5517 22.1349 22.93
4597 1 27.4623 22.1597 24.5388
2375 1 25.4374 20.3049 24.4985
5478 1 26.9168 20.6693 26.3872
5386 1 25.353 22.2033 26.082
5391 1 28.9577 20.2555 24.8314
5388 1 29.4366 22.0339 23.0281
6913 1 30.9061 20.2044 23.1594
6113 1 30.6366 22.2131 25.0861
3630 1 29.1674 22.0875 26.9816
5869 1 30.9763 20.1622 26.6665
5506 1 29.0625 24.5909 25.182
6910 1 32.9204 20.2352 24.8629
1441 1 34.8102 21.8914 25.3212
6906 1 32.521 22.687 23.5882
6912 1 34.7969 20.1934 23.2534
7792 1 -0.0251289 23.4481 24.4184
590 1 1.76048 23.9533 22.8264
6990 1 1.78952 25.5789 24.5747
7794 1 -0.117521 25.5185 23.0534
749 1 1.47508 27.4083 22.8855
7072 1 0.200608 27.6058 24.7195
7408 1 0.441957 25.6185 26.3336
832 1 3.22018 23.8186 25.0444
592 1 5.51995 24.2466 23.0502
7874 1 3.10714 27.5026 24.7691
7871 1 3.48581 25.8233 23.129
7800 1 7.16002 24.1374 24.5986
7884 1 5.32679 25.5526 25.163
670 1 7.54304 26.1659 23.0093
672 1 5.42771 27.4382 23.3889
600 1 8.73341 24.0841 22.6624
1392 1 10.9096 24.0927 24.8093
7796 1 10.6575 25.7076 22.8266
2752 1 9.11093 25.9162 24.8026
669 1 11.0568 27.2602 24.6455
756 1 8.98001 27.7628 23.4693
2186 1 14.2402 28.0648 21.1851
1390 1 12.4974 24.009 22.6383
1391 1 12.7697 25.6002 24.7729
4561 1 14.536 26.0563 22.8664
2349 1 12.8154 27.8324 23.1105
1559 1 14.6349 27.4205 24.9833
1398 1 15.1314 26.0449 26.5262
3786 1 17.1233 24.3392 22.704
3071 1 18.4286 24.4791 25.2896
1480 1 16.5939 26.0172 24.4057
2986 1 18.7087 26.1079 22.819
5477 1 16.6679 27.8789 22.7892
4910 1 18.5424 27.8581 24.4958
2992 1 19.8151 24.015 22.4846
7003 1 20.0359 25.9501 24.5899
6209 1 21.8364 24.3294 24.2031
3792 1 21.7279 26.3731 22.6573
5472 1 24.151 24.0957 22.7763
4671 1 23.4962 26.1079 24.6368
3748 1 20.051 28.1911 26.6538
6190 1 25.3663 24.7193 24.8538
6271 1 27.5665 24.2423 23.0173
5555 1 25.6082 25.9165 22.6689
4592 1 27.3886 26.1222 24.5928
6273 1 27.2314 27.9139 22.5506
4861 1 27.0325 25.9983 27.4672
6192 1 31.0262 24.2091 23.2915
4591 1 30.8493 25.9635 24.9225
6269 1 29.468 26.1436 22.8936
6272 1 31.0295 28.0438 22.9122
6916 1 28.8886 28.4094 24.1162
5173 1 29.0163 26.8279 26.4645
1337 1 33.0488 24.1994 25.2568
7787 1 34.6265 24.0111 23.1782
6992 1 32.8321 26.0547 23.4079
7159 1 35.1833 25.7944 25.1224
7070 1 34.887 27.5709 23.2089
7073 1 32.6863 28.1963 24.4812
5474 1 34.2871 28.1637 26.1715
7951 1 1.72812 29.7198 25.1014
6353 1 0.0184496 29.7846 23.0836
7950 1 2.08377 31.42 23.191
673 1 3.52594 29.2455 23.1193
1389 1 -0.637112 29.7931 26.4077
2190 1 7.09699 27.2998 25.1106
1001 1 3.73534 31.6195 25.3725
2029 1 5.3638 29.5696 25.1319
1547 1 6.8726 29.5623 23.2394
830 1 4.95398 31.4673 23.1883
1553 1 6.89906 31.6 24.7395
1471 1 8.37891 29.9333 25.1105
2192 1 10.418 29.3832 23.0248
3160 1 9.06647 31.2341 23.1546
915 1 11.2038 31.0138 24.6662
2352 1 14.6863 31.3207 21.1049
2218 1 12.926 29.0991 25.1722
3067 1 14.8354 29.1841 22.9575
2430 1 14.4237 31.0047 24.5574
1627 1 12.8346 31.098 23.0616
3153 1 16.4397 31.5475 23.3606
1639 1 16.4907 29.423 24.3678
3146 1 18.5951 30.0758 22.5328
4031 1 18.3971 31.6655 24.5803
4590 1 20.2374 27.9953 22.4889
3876 1 21.9712 28.0403 24.6097
3159 1 20.4823 31.7335 22.7231
3072 1 20.2739 29.9057 24.3183
4749 1 22.0954 29.694 22.8681
3869 1 22.4487 31.3988 24.6758
3235 1 23.98 29.2869 24.4651
4669 1 23.8971 27.8563 22.8181
4666 1 25.5784 27.8096 24.6252
3949 1 23.7954 31.6214 22.7015
5551 1 25.3127 29.8774 22.5559
7082 1 26.9199 29.629 24.3525
5629 1 26.8008 31.5139 22.6472
3233 1 25.2319 31.2027 24.5422
5711 1 26.8339 31.481 26.7616
5389 1 29.0358 29.9965 22.4999
6349 1 30.6817 29.9829 24.4014
6351 1 30.8601 31.3859 22.5552
5393 1 28.7388 31.4851 24.3731
6431 1 28.7107 29.6027 26.3643
447 1 -0.087479 31.5208 24.8805
7149 1 32.9325 29.9912 22.6866
6517 1 34.7747 29.6231 24.2481
7236 1 34.8171 31.7081 22.6642
6352 1 32.1219 31.9219 25.1699
6433 1 32.5869 29.9487 25.8136
7311 1 1.53877 35.2833 23.0965
2848 1 1.8777 33.3364 24.6807
115 1 3.62513 35.08 24.6793
753 1 0.0786526 33.0273 23.0257
113 1 -0.0177949 34.6355 25.0521
604 1 1.41589 34.6549 26.803
3875 1 0.0065227 32.8322 26.9229
29 1 3.49446 33.4844 22.7895
36 1 5.41992 35.1907 22.8132
2276 1 6.95413 33.2166 22.9966
3892 1 5.17743 33.3224 24.5752
1306 1 7.41182 34.9474 24.776
5716 1 5.44692 35.4134 26.2378
5075 1 9.27193 31.8111 26.2378
1793 1 9.80141 -0.236672 25.2288
1557 1 8.83556 35.0721 23.0102
200 1 9.38312 33.3039 24.39
2196 1 11.2973 32.9423 22.9985
3870 1 11.1922 34.8597 24.4444
1714 1 12.7286 34.799 22.6829
7234 1 14.4183 34.7859 24.3366
1710 1 14.4681 33.0898 22.5727
4771 1 12.9056 32.9488 24.6617
2359 1 14.8684 33.5199 26.149
2427 1 16.4041 33.4462 21.1126
1711 1 16.5432 33.5267 24.2604
2433 1 18.1936 35.1805 24.5767
2431 1 16.5298 35.3886 22.6308
2513 1 18.3799 33.4279 22.9734
2514 1 16.3947 35.359 26.0614
3955 1 20.146 35.2808 22.6197
3952 1 20.2214 33.5677 24.2241
3069 1 22.109 35.6704 25.1338
3239 1 22.1047 33.6624 23.0186
4106 1 25.6987 35.6982 24.4918
4601 1 24.072 33.6695 24.3852
4754 1 23.8317 35.3934 22.7604
4832 1 27.3181 34.9963 22.2604
5556 1 25.4567 33.4344 22.484
6125 1 26.6302 33.396 24.4663
6512 1 28.6653 34.9601 24.7823
7954 1 30.5792 33.5549 24.569
5626 1 30.825 34.6298 22.2567
5631 1 28.8738 33.1138 22.7943
6434 1 32.9933 34.8119 24.5133
6432 1 34.8713 34.6685 23.1111
6429 1 32.6279 33.1844 22.9206
114 1 34.6934 33.0658 24.7681
6931 1 1.18098 -0.0164473 28.4087
2439 1 3.36017 0.383624 26.44
7872 1 -0.474647 1.97417 28.0525
1158 1 3.99425 2.15134 28.3463
5104 1 3.01771 0.353001 30.2881
6699 1 -0.628691 -0.0583378 30.0936
7395 1 7.68899 -0.547141 27.291
4995 1 7.55082 36.082 29.612
2535 1 5.40944 0.00289616 28.8979
2459 1 7.69096 1.84311 28.2306
1097 1 5.78452 1.66189 26.491
4680 1 4.68327 35.4188 30.7549
3554 1 7.38361 1.3581 30.6879
4219 1 12.0601 2.69256 26.2296
992 1 10.7855 2.98251 28.381
1823 1 9.87755 1.12475 27.1256
5480 1 11.9203 1.18982 29.6808
5965 1 12.1131 0.50773 27.2856
356 1 15.4698 4.19074 28.821
6048 1 14.4324 0.0789746 29.0822
1786 1 14.0754 2.33952 28.8626
2600 1 15.6118 2.09872 30.4491
1636 1 16.2778 2.08114 25.9705
1638 1 16.2292 1.50474 27.9642
38 1 18.0888 35.4657 28.0494
2696 1 19.6933 35.207 29.6041
7585 1 19.1464 1.03735 28.7659
4274 1 18.5608 2.9155 27.0263
3739 1 17.8115 2.81645 29.5033
4034 1 22.8993 0.42 26.8701
4675 1 21.2624 3.82869 26.2507
5795 1 20.4989 1.2981 26.8786
3956 1 21.0438 -0.508716 28.0541
6861 1 23.1943 2.72154 26.6686
2435 1 20.7368 3.08496 28.699
3395 1 20.4013 0.456662 30.7615
7978 1 24.3195 3.40601 28.6236
2590 1 25.1552 1.22146 26.944
3311 1 27.0434 -0.142743 26.486
5554 1 26.865 2.18225 28.4027
7337 1 25.5314 2.90997 30.3477
1795 1 26.1963 3.55409 26.5629
7989 1 24.9696 0.765114 29.4322
1476 1 29.5224 0.0116506 25.9264
5714 1 28.6748 34.7359 27.2344
4123 1 29.0389 0.257439 28.2293
5497 1 32.4664 -0.127365 28.7557
5949 1 30.6293 3.29189 27.9319
5330 1 27.2579 0.448409 29.7932
7168 1 30.7101 35.3817 28.8019
5871 1 31.4913 1.26012 27.1769
2391 1 34.6806 -0.267576 28.4553
5791 1 34.0811 1.79552 26.8129
3027 1 33.5955 1.94886 29.0185
7176 1 -0.252082 -0.245062 26.413
7387 1 35.4593 1.97411 30.4665
4481 1 0.241656 3.71479 30.3988
6669 1 -0.0834144 5.18788 27.6117
3474 1 3.39264 2.97141 30.8181
1561 1 1.90144 3.54429 28.5687
1156 1 2.65939 5.87406 27.8717
7400 1 1.63655 5.37298 29.9161
5401 1 4.22731 4.93645 28.9641
5986 1 5.74005 3.08803 29.7015
1870 1 3.13568 3.90048 26.4579
1081 1 4.89208 6.06153 26.9011
1159 1 6.16601 4.03826 27.4868
1074 1 6.62352 6.23249 28.6292
5563 1 8.51583 4.30006 29.3674
7389 1 4.25788 7.80742 30.9187
271 1 8.12358 5.73784 26.8831
996 1 10.1312 4.37438 26.6027
2761 1 10.7975 4.90737 30.0051
1787 1 13.9215 3.79888 26.4613
6194 1 10.8233 6.50219 28.3382
2209 1 8.35014 6.03803 31.0895
7397 1 10.0828 3.6489 31.877
7680 1 12.5272 5.62644 31.3644
918 1 15.0832 6.67753 27.0686
2702 1 12.7802 4.41458 28.4413
3555 1 12.7433 6.83908 27.1921
1633 1 14.0881 6.10725 29.1707
1601 1 16.1379 6.59198 29.8878
5574 1 17.7191 4.98979 28.7485
835 1 16.5976 4.19622 26.6536
914 1 21.0719 7.30073 29.0063
2939 1 18.5667 7.14652 29.3634
3822 1 19.9379 4.95282 30.026
6128 1 19.642 5.22562 27.2793
7318 1 22.1404 5.14326 28.3378
6921 1 21.6407 6.88177 26.6859
5483 1 24.1521 6.81679 28.8984
6356 1 22.4273 6.14657 30.9757
1801 1 23.7953 4.97503 26.5668
5637 1 22.6342 3.80341 30.2427
3312 1 25.9887 5.08794 28.335
5073 1 27.6332 5.8188 26.5209
4775 1 26.0256 7.23749 30.3131
6510 1 28.2325 4.15113 28.1507
4836 1 24.5434 5.07926 30.4055
360 1 27.0743 7.68994 28.2745
7877 1 28.0526 2.07331 26.4642
6599 1 29.1642 7.24552 26.8056
5553 1 29.4515 4.39782 26.2057
6436 1 29.0884 6.11264 29.1361
120 1 27.684 4.31256 30.2643
1094 1 31.0606 6.00821 27.6462
1643 1 31.3511 8.21602 28.6611
6930 1 33.0046 7.32408 26.964
7900 1 34.6162 3.90165 29.0054
3730 1 32.5806 3.52428 26.752
6071 1 30.7568 6.78663 30.4428
6829 1 33.188 5.42204 28.4532
142 1 35.515 5.91708 30.8219
4618 1 32.1117 8.00175 32.0053
358 1 3.51384 11.4328 26.5398
7588 1 1.91046 9.44471 26.8704
3020 1 -0.135573 7.72025 30.0493
1000 1 2.45092 8.07704 29.1349
1885 1 1.86848 7.50026 31.3978
273 1 3.32973 7.68518 26.5146
2285 1 3.31011 10.221 28.8292
35 1 0.474829 9.84085 28.7937
5249 1 4.6674 9.80459 26.9439
5877 1 4.6527 7.71279 28.6322
7639 1 6.89551 8.95876 28.3721
6677 1 5.13987 11.7216 28.5569
1143 1 6.56298 7.86819 30.5509
5564 1 6.88636 11.4105 30.0539
6035 1 5.33703 9.57544 30.152
437 1 10.4629 7.47359 26.2797
7393 1 8.72334 7.50406 28.6765
7081 1 10.9526 11.0807 26.5104
201 1 10.1575 9.22634 28.3582
2363 1 9.09169 9.27958 30.5609
3633 1 10.4062 7.26894 30.5512
1236 1 8.93087 11.2807 28.5142
1152 1 14.6067 10.9346 26.6893
3637 1 14.7448 8.78202 28.2367
2032 1 12.4532 8.96253 29.1466
3718 1 14.3562 10.4548 29.9118
4353 1 15.7207 8.52677 31.2867
3472 1 12.7497 11.0726 28.3083
1509 1 16.939 8.74648 29.3235
5235 1 16.71 9.36184 26.9484
1876 1 20.0593 9.50701 28.8889
1253 1 16.5549 10.7842 30.7863
33 1 16.5484 11.3586 28.5527
6195 1 18.9674 11.0901 29.987
7417 1 18.6134 9.2128 30.9363
3313 1 20.4042 7.3342 31.079
5957 1 24.2165 8.71121 30.4343
4429 1 22.2892 9.05355 28.6731
4670 1 21.3851 9.65669 31.0131
4610 1 19.0101 8.09737 26.9501
4269 1 23.4493 8.53311 26.7691
4350 1 23.9397 10.867 28.3714
995 1 21.1515 11.7036 28.7629
6110 1 27.1399 9.25058 26.5861
1799 1 25.3409 11.299 26.3526
4764 1 26.7375 11.1031 28.0338
197 1 25.3816 6.78025 26.7152
7239 1 26.9015 9.54633 29.9665
4220 1 25.301 8.74588 27.9668
7656 1 31.1027 9.40721 26.7608
5956 1 28.2512 11.3783 29.9083
2522 1 29.0751 9.47806 28.2879
7549 1 28.8436 8.06206 30.0882
1249 1 30.4534 10.1102 29.9227
5023 1 0.560502 7.60331 27.2808
5786 1 35.0979 6.78711 28.2564
1796 1 34.7967 9.50166 29.5827
4132 1 32.8755 11.5261 26.4391
5425 1 33.3013 9.67037 28.1229
1250 1 35.3351 11.4806 28.3318
3645 1 32.7094 9.60888 30.3753
6751 1 33.3722 7.17801 29.8874
7316 1 -0.0034205 11.2641 26.4586
1160 1 1.71964 13.1047 26.5271
7154 1 -0.116383 15.0976 26.6561
276 1 1.537 11.6297 28.3867
5175 1 1.92252 15.1148 28.6323
2447 1 2.00546 13.7796 30.8718
5891 1 3.60889 14.9063 27.0121
5268 1 3.5309 13.1518 28.6693
3634 1 3.66393 15.5347 30.4258
6764 1 5.4414 13.0395 26.5557
1487 1 7.03531 13.2641 28.3122
2593 1 5.55513 14.8619 28.218
6126 1 7.45197 14.9827 30.5273
3078 1 5.38848 13.4729 30.4769
7589 1 11.2016 15.0708 26.5409
7480 1 10.7119 11.1442 30.0473
7010 1 9.02387 12.8541 26.7453
2295 1 9.05504 14.9806 28.0831
2538 1 10.9917 12.7585 28.383
4435 1 11.2282 14.7055 29.9904
3884 1 8.79414 13.2128 29.9158
2270 1 12.8022 12.9491 26.6906
6695 1 14.8216 14.885 26.9768
1234 1 12.8818 14.985 28.2536
7499 1 12.8116 12.8566 30.366
4600 1 14.7904 12.7111 28.4903
3726 1 14.8775 14.4449 30.2891
5337 1 14.8516 12.3884 31.2544
2026 1 17.7031 15.4619 26.4898
4677 1 17.0297 13.8051 30.3876
3906 1 18.1407 13.1104 28.2625
1713 1 16.5013 15.0914 28.4936
7903 1 18.6971 15.4268 29.9509
3310 1 21.351 10.2395 26.6325
3814 1 19.7831 13.1738 30.0425
3731 1 19.7395 14.9387 27.4604
2608 1 21.8686 14.7068 26.1811
6037 1 22.9855 13.1791 29.8664
5799 1 21.5633 14.158 28.5164
4130 1 23.5855 15.5631 29.2654
6914 1 21.4615 14.6334 31.0256
4708 1 27.1697 13.1422 26.6408
3156 1 25.7997 11.8474 30.0533
4356 1 25.6206 13.9411 30.8143
6595 1 28.1347 13.3032 31.3684
2991 1 25.1028 13.1777 28.2523
6841 1 26.8618 14.8912 28.5846
5870 1 29.0637 11.5338 26.6258
4294 1 31.168 11.4183 28.2577
932 1 29.015 14.9423 30.0771
771 1 30.8249 14.5544 28.095
4694 1 28.2675 13.1518 28.7669
770 1 30.2767 12.7351 30.104
5076 1 32.8136 12.3594 30.1095
786 1 32.8923 13.2558 28.0421
1340 1 0.0956143 13.4094 28.2071
1016 1 0.727129 11.8239 30.6553
1645 1 35.2919 12.5066 30.0319
6756 1 34.9311 13.6269 26.824
6993 1 -0.241092 19.471 27.738
3237 1 1.47043 18.2681 28.8501
1489 1 1.54329 16.3461 30.5802
2826 1 -0.227191 18.1638 30.3938
4761 1 -0.286342 15.9244 28.9971
2044 1 3.17534 19.0794 30.5017
7313 1 3.33043 18.7258 26.3197
2997 1 3.47444 16.9756 28.4428
2284 1 5.542 17.2351 26.4454
1232 1 7.5313 18.5735 26.0099
3720 1 7.42365 16.7974 28.248
519 1 5.38191 18.3714 28.8018
2758 1 5.7459 16.5534 30.1991
6304 1 7.62691 18.6477 29.8813
1314 1 9.13756 17.3229 26.5851
3077 1 11.1937 18.6151 26.2597
1647 1 9.09994 16.5383 29.7003
6281 1 11.1066 17.1516 28.0618
2926 1 9.17838 19.0921 28.0959
5319 1 11.0271 18.9444 29.7649
2827 1 13.1129 17.2367 26.6848
4795 1 16.5075 18.5537 28.0826
3801 1 14.7111 16.6793 28.3472
4113 1 14.7752 18.9073 29.6288
3799 1 12.8336 19.1591 28.0365
2197 1 12.6769 16.9377 29.7866
3717 1 19.0416 17.0968 28.173
910 1 18.0462 17.848 29.968
6919 1 15.8766 16.8883 30.2735
4518 1 19.643 19.2268 29.575
3709 1 23.6882 16.6864 26.3824
5950 1 20.4699 16.8328 30.3021
5484 1 21.5539 16.977 27.7366
2995 1 22.7355 17.52 29.8223
6670 1 23.641 18.5819 27.8422
2669 1 24.6588 16.0558 31.1292
2679 1 27.3795 16.5609 30.0401
1010 1 25.1913 16.7524 28.039
2543 1 26.8443 18.5277 28.1681
287 1 25.2092 18.4016 29.9225
5009 1 31.8853 14.5474 30.094
850 1 30.3377 16.8558 30.3778
2920 1 29.3668 16.5465 28.2708
4762 1 31.2176 18.6265 29.0574
7725 1 28.3535 18.4467 29.9368
5958 1 32.9315 18.1115 27.0614
7963 1 35.2864 15.956 31.397
2856 1 34.5113 14.6631 29.1391
521 1 32.1343 16.28 28.4295
6830 1 35.2922 16.8559 27.1232
429 1 34.2849 17.1003 29.3079
3121 1 32.3818 17.2375 31.0274
355 1 1.70236 20.3156 27.2271
5558 1 2.73911 22.171 28.5629
3568 1 1.05205 20.7115 29.6867
1164 1 0.82834 24.9708 30.8747
7804 1 3.86783 20.0722 28.5145
2842 1 3.7973 21.8544 26.4097
2925 1 3.88247 21.7332 31.2441
3158 1 5.24657 19.9241 30.3718
2111 1 5.40911 21.9665 29.0169
4203 1 7.01108 22.7252 26.7994
7428 1 7.08378 20.641 28.3455
6115 1 4.97837 25.9714 28.237
1309 1 9.05089 20.2031 26.1793
1564 1 10.9819 20.3139 24.4654
3950 1 11.1306 20.6585 27.8983
284 1 9.14091 22.3381 27.865
4840 1 9.45595 20.5085 29.8744
6284 1 10.8874 22.4286 29.6792
1883 1 11.1346 22.5282 26.5458
4713 1 8.29277 22.5874 29.9139
2839 1 14.8601 20.7672 28.118
3244 1 12.8285 22.0228 28.0281
4117 1 12.5689 20.7741 29.8886
524 1 14.6245 24.5781 28.8049
3810 1 12.6998 21.7836 32.2117
5815 1 14.8596 22.0982 30.1023
1171 1 16.7493 20.5147 29.7928
1231 1 16.2249 20.9264 26.0529
5404 1 16.1722 22.7519 28.3179
3959 1 18.0284 20.3996 27.8788
2833 1 18.5026 22.7308 29.8736
4292 1 20.2387 22.0513 28.4165
875 1 21.1152 20.9405 30.335
5152 1 23.4892 20.6059 26.2063
3960 1 21.9648 20.4362 28.2759
6455 1 23.4706 20.1784 29.9487
4845 1 23.5401 22.678 28.4621
5238 1 25.1984 20.6762 28.2788
5320 1 27.0142 20.3837 30.0496
6204 1 25.3904 24.3004 27.9058
4441 1 25.9244 22.5613 29.953
7744 1 26.955 22.4501 27.8804
2829 1 27.4278 24.0135 31.3137
1805 1 29.3761 20.7899 30.7522
6774 1 30.7867 22.0795 28.9499
4467 1 29.0666 20.1766 28.3958
5416 1 30.9305 23.8373 26.7632
5316 1 28.6437 22.954 29.7422
1550 1 34.0863 20.2096 26.8882
603 1 34.878 19.5473 29.4429
7076 1 33.0544 23.2958 29.4564
7406 1 32.7278 22.5183 27.0135
6715 1 35.2248 21.7206 28.9655
7955 1 32.5323 20.5905 28.6761
7709 1 34.7783 23.7034 26.7622
7713 1 1.56333 23.2784 26.4669
1151 1 0.176072 23.6437 28.3185
677 1 1.56625 22.7215 30.4205
1873 1 0.556704 26.3446 29.2336
7074 1 2.0408 27.7111 26.5727
5632 1 2.07749 24.6407 28.7356
513 1 1.64364 28.3685 30.3817
2750 1 5.39414 25.4201 31.5156
4751 1 2.93001 25.5515 26.8355
2271 1 3.04947 28.2296 28.48
6675 1 4.88072 23.7816 27.0547
1721 1 6.91081 25.4517 26.8531
2033 1 6.5151 24.2123 28.8749
7162 1 6.73769 26.841 29.6754
1495 1 7.88646 25.3563 31.0412
7949 1 4.58895 27.5853 26.5068
6777 1 9.60744 28.1183 26.4297
589 1 8.92671 24.2289 26.4789
3794 1 10.8075 25.7154 26.9887
2760 1 9.20395 24.5923 28.8079
6365 1 10.3166 24.8117 30.7816
1085 1 11.8998 26.8891 28.5694
2185 1 13.1919 24.9628 26.9205
6511 1 11.8017 24.5579 28.6338
3170 1 14.4038 26.7422 28.6393
3318 1 14.1136 28.5446 30.3903
2912 1 12.8798 27.2789 26.3402
5237 1 16.9852 24.4405 30.5625
4756 1 16.035 23.9807 26.3429
2453 1 18.6169 24.1567 28.2067
1235 1 18.8896 26.2731 26.8933
5559 1 16.9366 25.5922 28.0531
3516 1 19.3699 25.5861 29.9256
1475 1 18.6199 28.0125 28.3857
2601 1 16.7254 26.983 29.7982
7078 1 16.9685 27.9732 26.2552
7980 1 20.7825 23.8711 30.0119
3164 1 21.0599 26.6311 28.2342
3149 1 21.7245 26.0785 26.1637
2830 1 20.0611 24.1419 26.4872
2835 1 23.5252 24.7015 29.6534
4632 1 21.838 24.3244 28.0517
777 1 22.6516 27.0537 29.6593
5233 1 23.6571 24.1565 26.3836
3969 1 24.0605 26.1242 27.382
6355 1 23.9605 28.3466 26.5048
4515 1 27.0763 23.9582 26.067
4755 1 27.9332 25.3743 29.4645
4511 1 25.3696 26.1119 29.4576
7797 1 29.7242 27.9607 28.268
6991 1 27.2159 28.0082 29.1499
6435 1 24.9499 27.44 31.3764
6996 1 28.8135 24.4078 27.6084
678 1 30.7126 28.2167 25.7539
6134 1 31.4299 26.5511 27.5703
6840 1 29.8184 26.565 30.0566
52 1 30.3317 24.3655 29.3179
3273 1 35.3499 23.9507 30.0294
7071 1 32.874 24.7668 28.0108
7342 1 33.0439 26.4361 25.9995
682 1 35.4071 25.6466 27.8471
6555 1 33.4855 27.4414 28.7494
6290 1 32.2551 25.7936 30.1698
5749 1 34.9866 26.2543 30.094
195 1 -0.207893 27.5689 27.2984
1313 1 1.76539 31.7276 26.5968
3639 1 1.24036 29.4046 28.0266
2280 1 35.9454 30.9375 28.4913
6995 1 0.308938 30.368 30.8852
1560 1 -0.23992 31.9363 33.2825
5469 1 3.90678 27.9186 31.3438
7554 1 8.57041 26.6592 28.1314
3477 1 2.92892 30.131 30.0669
31 1 3.52019 29.4729 26.6865
7069 1 3.59218 31.585 27.8622
3575 1 6.70194 30.8651 26.9907
1414 1 5.30681 28.9842 29.4307
7572 1 3.77556 32.217 31.3337
7647 1 5.1972 30.3297 31.2806
3074 1 8.7649 30.2311 27.5808
750 1 6.85899 28.4361 27.5059
2298 1 8.02889 30.013 29.8313
5002 1 6.71107 28.5109 31.4063
1724 1 11.2633 31.1871 28.7103
6233 1 10.2176 28.9802 29.0211
3317 1 10.0553 31.5526 30.6908
6998 1 11.185 29.6423 26.9557
3229 1 11.4643 28.6931 30.8399
3080 1 13.0327 31.2218 26.7262
6299 1 14.8126 29.2551 26.6049
1794 1 13.0437 28.8563 28.1812
452 1 13.6918 30.9357 29.5882
7498 1 12.1709 32.8975 30.4518
2212 1 16.135 30.2798 30.7717
1554 1 16.186 31.6815 26.0923
3812 1 18.0467 29.9426 25.9772
5252 1 16.5317 29.2166 28.3661
3632 1 17.6196 32.2986 31.2261
2351 1 20.4378 30.0441 28.2418
1717 1 18.9366 31.1138 29.7688
2444 1 18.364 31.307 27.6907
4929 1 17.9172 28.779 30.6188
4039 1 22.2952 31.2703 27.4832
2115 1 20.147 31.8119 25.9851
7089 1 20.2882 28.4437 29.9124
37 1 22.6197 29.2048 28.4319
4750 1 21.7083 29.64 26.0702
2198 1 24.5412 30.2387 29.7843
3674 1 22.2026 29.5461 30.9523
4040 1 26.2835 28.8109 26.9961
1084 1 24.6585 30.5816 27.4711
3487 1 24.7321 28.2019 28.7624
3873 1 26.7026 30.3743 29.0288
2038 1 23.3742 32.7255 29.5139
6430 1 30.2379 32.1763 26.5526
5639 1 29.0943 29.3753 30.1148
4914 1 31.216 29.7642 27.6393
3898 1 28.9478 30.9577 28.1984
5657 1 28.062 30.3998 32.4353
7086 1 31.3247 30.7886 30.1745
6200 1 31.4198 28.5342 29.9203
1718 1 36.0105 28.6624 29.255
5514 1 33.4869 28.4566 31.1898
751 1 34.189 31.6522 26.4954
7956 1 33.8672 29.8061 27.8479
6358 1 32.2393 31.7212 27.9249
4369 1 33.846 30.458 30.1959
111 1 2.30311 34.6646 29.751
5960 1 0.999603 32.3419 28.9619
4993 1 3.48545 35.4259 27.8732
310 1 3.5482 33.461 26.4742
7229 1 35.4472 32.3666 30.6209
7004 1 5.86015 33.0643 26.8234
515 1 4.29325 33.7272 28.7254
1177 1 6.90982 33.9339 29.232
2517 1 5.86438 31.6691 29.0905
7952 1 5.86517 33.75 31.8453
7310 1 8.17548 33.8261 26.7702
764 1 10.6358 36.0252 29.5092
2106 1 10.5874 33.4288 29.0291
445 1 8.69939 33.621 30.9024
760 1 10.118 34.8153 27.0272
1474 1 8.75481 32.3203 28.8413
7164 1 7.07566 31.8622 31.1328
5634 1 11.403 32.9672 26.537
1735 1 12.8231 34.8676 28.8774
2754 1 12.5018 34.9859 25.9697
7101 1 13.7684 32.7073 28.2104
285 1 15.1443 34.2963 29.3891
203 1 16.5179 35.9834 29.832
3968 1 14.6199 32.4337 30.9882
6404 1 18.1529 33.3848 26.3192
2432 1 20.0871 33.1074 30.8975
1551 1 15.9961 31.9243 28.4727
7261 1 18.0229 33.2972 28.8035
3150 1 19.9756 34.98 26.3403
7335 1 22.6774 1.53472 29.1585
7896 1 22.1291 35.312 30.0047
1631 1 21.8521 33.1555 25.7289
4830 1 20.7973 33.4941 28.1932
4365 1 22.7926 34.4764 27.7025
4911 1 24.6488 35.4215 26.5509
1962 1 24.4442 35.0854 29.6
5789 1 23.9762 32.8754 26.4275
4124 1 26.5271 33.9254 26.5446
6608 1 26.6605 35.2234 28.4686
4752 1 25.853 32.6848 28.6478
7817 1 27.4456 34.7771 30.9016
7094 1 28.9709 31.6572 30.5365
6591 1 30.566 33.1403 28.6157
4918 1 30.8869 34.8464 26.3877
3320 1 28.258 32.6863 26.2494
1405 1 27.8781 33.3097 28.7084
5242 1 0.0222241 34.6386 29.0872
4912 1 34.9601 33.0749 28.3177
1901 1 35.1416 34.9748 27.1381
5179 1 32.6728 34.0787 28.5469
5321 1 32.8816 -0.812508 26.7297
7231 1 33.0264 33.5764 26.5582
4275 1 32.8588 32.8729 30.7804
7958 1 1.43486 1.79485 29.877
6041 1 0.452579 1.65774 32.189
1239 1 1.43178 35.7411 31.4261
7098 1 35.7434 3.44344 32.5561
4378 1 2.40773 2.02421 33.0873
4838 1 31.2042 32.5551 35.3655
3807 1 -0.365339 1.40823 34.5436
1956 1 1.43842 36.4873 34.2891
7970 1 1.12429 21.3434 34.3784
4546 1 15.7381 34.6489 32.3143
861 1 6.7592 35.7798 31.889
2850 1 5.21048 1.06902 31.0237
2999 1 6.18924 1.48378 33.1706
7324 1 7.93869 2.39771 34.9878
2365 1 3.53134 0.0498531 32.7561
4782 1 7.50726 -0.257809 34.3952
3476 1 11.6406 35.4938 31.4968
3816 1 8.87889 1.48853 32.7328
6835 1 9.59421 1.72776 30.1704
4763 1 11.2386 1.54483 32.0249
274 1 10.7506 35.1137 33.5524
130 1 25.4285 33.9097 31.8184
1716 1 10.3322 2.38677 34.0535
999 1 13.3447 0.572684 31.2741
1092 1 13.8628 35.8721 33.4401
2527 1 12.1536 0.435899 34.0701
3399 1 12.5058 3.26482 30.4635
4049 1 15.8948 0.0269919 31.7625
3501 1 14.2075 1.69774 32.7725
30 1 15.9312 0.345494 33.946
3505 1 18.0211 0.645745 31.2272
3154 1 16.8691 2.65268 32.5062
5016 1 19.492 0.460825 32.9856
4279 1 19.3109 2.55767 34.1952
3063 1 16.0701 26.3538 17.7878
5390 1 21.7129 0.19773 33.5694
2195 1 21.5891 2.06117 31.9403
3143 1 16.3117 29.6926 17.4008
5793 1 19.2785 2.40102 31.6743
5942 1 28.8641 12.5669 18.1573
5718 1 27.4055 2.21905 31.3799
3475 1 24.3491 0.0651482 34.3625
1961 1 23.8383 1.47783 31.6218
5324 1 25.6739 -0.1225 31.6304
5155 1 26.9171 0.841241 34.5521
5188 1 25.3822 2.22891 33.002
6282 1 29.7126 -0.048073 30.7999
2919 1 28.9811 2.24775 29.6255
42 1 31.5601 -0.139799 32.5793
7973 1 28.0731 2.89066 33.6662
2624 1 29.6173 1.22141 32.7837
7420 1 31.2035 1.36832 30.0967
1881 1 14.9864 35.3213 35.4122
712 1 33.7274 35.3929 33.0075
847 1 34.3814 34.9994 30.5882
1811 1 33.4065 0.303533 31.1135
290 1 35.8504 -0.277117 32.6624
6521 1 34.1686 1.39509 33.3859
7557 1 0.963626 3.94773 34.2192
7398 1 3.05656 4.29056 32.9266
5724 1 2.30684 6.4209 33.6941
5153 1 3.70524 5.67677 31.2572
4453 1 0.983327 5.14145 32.0587
4854 1 3.97756 3.00756 34.791
3550 1 5.21846 3.51248 32.4662
7720 1 4.77516 5.88922 33.3173
5397 1 7.56748 3.55481 32.1218
3661 1 6.15139 5.56759 31.0893
2771 1 6.28291 4.13676 34.6762
4367 1 7.07932 6.21501 33.31
7240 1 10.5778 5.74799 32.5055
4138 1 12.6001 3.74164 32.7628
5142 1 25.16 12.8873 17.6522
1886 1 10.9798 8.11734 33.0387
4281 1 8.89101 4.60546 33.7818
1648 1 26.2215 32.9915 34.1024
6846 1 14.4372 4.30232 30.8958
3623 1 19.9939 14.6816 17.6651
5262 1 12.7604 6.52143 33.5835
4196 1 14.7951 6.52527 31.906
4059 1 16.8169 4.84964 31.4522
5108 1 15.1178 4.57434 33.4699
2037 1 18.8389 4.96067 32.6801
6601 1 17.6703 7.25718 31.6188
5341 1 17.5444 3.74695 34.844
5800 1 17.1715 6.08064 33.5629
5980 1 15.8163 7.93121 33.6582
4510 1 23.4304 2.0725 34.092
6678 1 21.4718 3.6668 34.163
4387 1 22.7298 5.85563 33.3782
1166 1 21.1993 4.43808 32.16
2781 1 25.0358 6.5362 32.2364
607 1 25.1403 5.06422 34.3783
7062 1 32.7241 27.8165 17.4487
4936 1 23.7364 3.91359 32.3472
4430 1 26.2918 4.41696 32.4262
3782 1 17.9928 24.1273 17.8851
5174 1 27.8859 33.0875 32.4234
3393 1 22.8741 33.5564 31.5602
4829 1 28.254 6.26419 31.4093
7260 1 31.2239 4.27971 29.7017
994 1 30.2669 6.69348 35.1399
5802 1 29.8417 3.33474 31.713
2272 1 31.0981 5.27973 32.1936
3325 1 29.1658 5.16913 33.3938
6598 1 31.6164 2.26591 32.663
5000 1 30.7899 3.81398 34.2642
3479 1 21.3183 14.1751 35.2003
3234 1 33.4036 3.8641 33.3695
5074 1 33.9581 6.31056 32.8084
5710 1 33.3206 2.79543 31.365
1798 1 30.8459 34.8127 35.3018
1634 1 33.223 4.81103 30.9304
7556 1 3.03218 10.5029 34.3378
911 1 3.97976 9.96928 32.0133
6201 1 1.23312 9.70931 33.4368
6755 1 0.46301 7.62474 34.7254
7317 1 -0.131104 7.37315 32.6399
4030 1 3.23509 8.48383 33.1795
6519 1 1.05795 12.2346 35.5844
6451 1 7.16432 11.54 34.2418
3710 1 5.65767 8.28897 32.8547
1155 1 5.31626 10.0822 34.0527
3643 1 6.91079 10.1748 32.1652
2938 1 35.1969 -0.485103 34.8559
1099 1 7.41664 8.98073 35.017
6776 1 0.295825 16.2749 34.5688
6853 1 29.6794 19.4114 34.71
6844 1 9.03895 10.3061 33.9965
5722 1 8.1865 8.12696 32.4432
5332 1 9.89659 6.73122 34.3965
5234 1 10.9802 9.98904 34.8474
6679 1 8.54509 11.8977 32.0425
5020 1 12.6551 10.3529 31.6931
2287 1 10.5009 10.2304 32.3491
1871 1 13.1882 8.06767 31.3974
3389 1 14.8004 10.3316 32.5761
4198 1 12.9166 11.7757 35.5164
2749 1 13.2773 9.22356 34.0692
2434 1 17.7658 7.91308 34.5782
5715 1 17.1622 9.73739 32.8256
5007 1 32.8418 -0.0880158 34.9693
4111 1 19.7701 8.89109 32.8127
3964 1 19.1724 11.3704 32.808
6765 1 17.9918 10.8981 34.5577
6276 1 21.9534 8.16288 34.4867
141 1 20.6926 6.40744 33.1346
6534 1 22.9308 8.30265 32.3069
4831 1 20.3376 10.4894 34.6249
3879 1 23.4319 10.9459 30.5542
6938 1 22.5137 10.5761 32.9702
6766 1 26.5791 12.3492 32.7218
7268 1 29.6827 7.78357 32.5607
4681 1 24.4729 8.5253 33.9321
6039 1 25.5231 9.97023 32.1682
5489 1 25.1355 10.7491 34.4151
5001 1 26.8628 8.10197 32.3656
7898 1 28.919 9.91225 31.692
6030 1 31.1589 10.6489 32.3576
434 1 30.5649 9.27381 34.1411
2502 1 15.7651 3.95884 17.5288
5240 1 27.5767 10.6734 33.7105
3084 1 28.6282 8.56862 35.18
7075 1 32.2208 5.68492 34.3811
7550 1 -0.461314 9.88183 31.5882
4603 1 35.5553 9.3855 33.9212
5406 1 33.2182 8.97957 33.8831
5080 1 33.2651 11.5095 34.2013
5071 1 34.4608 8.25048 31.663
5302 1 25.5088 20.5215 18.0648
6618 1 1.70988 10.0519 31.2351
2204 1 2.19286 12.1063 32.6241
1072 1 0.765766 13.7109 33.7215
3712 1 3.92958 14.2759 32.4147
7161 1 21.6982 31.3566 29.8944
7084 1 3.60095 12.7718 34.4773
3713 1 5.76896 15.6319 32.3738
2626 1 5.29991 11.9288 32.4201
4848 1 3.81885 11.9837 30.5449
6364 1 5.65576 13.8971 34.4613
1807 1 7.67298 15.2789 33.9395
7150 1 31.1147 1.44456 34.9001
2110 1 6.97147 13.5364 32.4273
2354 1 10.837 12.7491 31.6187
3113 1 9.05704 13.5174 33.7271
3871 1 9.37701 14.4981 31.8698
7793 1 13.6262 14.048 34.6462
831 1 11.4462 14.709 33.5916
3578 1 10.9891 12.1596 33.96
5805 1 13.2372 12.5073 32.6166
2116 1 13.1432 15.1004 31.7988
917 1 15.3029 14.0259 32.5914
1395 1 15.2942 11.8495 34.3941
6121 1 18.9927 13.966 32.0736
4519 1 17.1444 12.423 32.7275
5171 1 16.7807 14.1704 34.8856
5659 1 18.8611 13.1034 34.2513
5819 1 20.523 15.3598 33.1164
3644 1 21.3249 12.1274 31.2768
3635 1 23.4047 14.6027 32.3595
4212 1 22.4299 16.2994 34.3861
1789 1 21.2012 12.8253 33.5216
4280 1 23.39 13.7891 34.7737
6369 1 25.2423 14.2096 33.3584
1011 1 24.3206 11.9002 32.7521
3878 1 26.9778 15.3956 32.4383
3793 1 31.7353 13.1132 32.6531
6782 1 1.97067 30.2537 34.6761
4437 1 29.442 14.5704 33.2205
2945 1 29.3738 12.0836 32.4999
4945 1 31.3817 13.6842 34.8931
2628 1 10.2429 26.1989 35.6873
7638 1 31.5327 15.8051 32.7182
6114 1 36.0517 11.795 33.3872
4924 1 -0.130527 14.1069 31.5203
2591 1 35.4119 15.0139 33.5112
1086 1 33.8675 10.8475 31.9331
7482 1 22.9858 35.8373 32.1684
1477 1 1.68527 15.7845 32.7737
5915 1 2.40092 17.3293 34.6659
7156 1 1.92178 18.2594 32.3023
1543 1 9.18231 29.532 17.79
457 1 4.01653 17.2075 32.5157
7717 1 4.18643 19.8298 32.5259
2921 1 5.29495 19.1711 34.4932
7410 1 4.01713 15.5469 34.5279
4621 1 6.05177 16.9701 34.3225
2149 1 8.37831 16.5164 32.0161
6196 1 13.0493 22.1667 35.179
2193 1 6.42392 18.5312 32.5031
427 1 9.45446 18.7447 31.7055
7247 1 10.9991 16.5596 31.5442
442 1 8.33259 17.8826 34.1991
5167 1 10.6227 18.9319 33.9494
357 1 9.99146 16.1753 33.4902
6447 1 18.6818 31.6787 33.6099
7233 1 14.5747 15.9731 33.5532
7640 1 14.4316 17.5655 31.9618
1556 1 12.4598 17.5608 33.9083
3560 1 12.4141 18.5881 31.7165
7182 1 15.186 19.0902 33.7161
456 1 32.2688 21.3799 34.9433
2670 1 18.8875 16.2978 31.9804
4925 1 16.5549 15.6659 32.212
4450 1 18.7454 15.4492 34.4368
2923 1 16.5104 19.1095 31.5758
2401 1 17.2803 17.3716 33.8937
4509 1 18.8702 18.5176 32.2959
4475 1 17.5276 23.7841 35.1138
5164 1 22.2184 16.5824 31.7795
1565 1 20.5975 17.5747 33.649
5014 1 25.2135 18.6571 34.1809
193 1 21.3016 18.8169 31.5057
865 1 24.2593 18.1158 32.1725
2119 1 26.0475 15.9932 35.8137
3269 1 24.7205 16.2607 33.77
155 1 27.1888 17.6741 34.2373
2940 1 28.2241 15.6622 35.06
6270 1 26.707 17.8225 32.056
7964 1 29.1097 16.7142 32.4541
4608 1 29.9541 16.9969 34.3556
6757 1 31.7695 18.1666 33.1421
225 1 32.3349 15.9327 35.0363
3899 1 32.2113 18.6804 35.5214
6915 1 28.8136 18.9415 32.5185
6040 1 33.8032 16.8311 33.0885
2117 1 -0.402568 17.5529 32.7815
5165 1 34.1792 18.6476 31.7076
4053 1 33.7145 14.1342 31.6094
531 1 34.3498 18.9606 34.5671
6749 1 1.62821 23.5815 34.8523
441 1 1.59906 20.681 32.0295
4868 1 2.94569 19.8908 34.2457
5154 1 3.43463 22.0759 34.0887
3790 1 0.138255 23.3718 32.7827
210 1 19.4926 33.8886 33.6279
6368 1 36.0077 21.6024 31.1455
2994 1 7.26332 20.4489 31.3003
512 1 6.16568 23.0163 31.3083
1040 1 28.3661 22.3637 34.4879
537 1 6.05593 21.2109 33.2532
7330 1 12.742 33.4828 32.849
3070 1 6.34577 23.1866 35.5155
3736 1 8.53316 20.4649 33.3231
757 1 9.25078 22.7685 31.7992
4201 1 21.7153 34.648 34.5056
6920 1 10.6595 20.6932 31.6641
3641 1 7.47617 23.9635 33.1294
3569 1 12.2688 25.8594 34.1417
6533 1 12.8193 19.7612 33.7451
4935 1 14.9592 21.7337 33.8229
444 1 11.1661 21.685 33.9479
2297 1 14.3251 20.1088 31.638
1953 1 14.3451 23.4573 32.3702
7635 1 14.5312 24.2779 34.6011
5712 1 5.82177 25.9251 35.3187
4676 1 18.719 20.826 31.0941
3642 1 17.2218 20.4806 33.4014
2924 1 20.2524 20.0449 33.6444
685 1 16.7637 22.1204 31.8764
927 1 18.8238 21.966 33.4785
4126 1 23.3982 22.3944 30.971
5918 1 24.003 20.8752 33.7545
6773 1 33.6997 13.6315 34.9985
773 1 22.6908 19.1481 34.0235
5230 1 20.7261 22.3349 32.2065
3989 1 22.2607 20.5096 32.3219
2682 1 23.1529 23.4994 34.0381
5732 1 27.7828 24.4772 33.5062
2360 1 27.5773 20.4485 34.0307
4231 1 25.4161 22.5158 32.3884
919 1 25.8482 20.0231 31.8188
4839 1 25.7461 22.4251 34.6745
5231 1 29.4847 22.8146 32.0196
6753 1 27.4283 21.584 32.0187
594 1 30.2792 20.9183 33.1093
2831 1 31.5189 22.1327 31.2777
6370 1 26.3581 35.3031 33.9177
7736 1 32.8376 20.3787 33.0348
5313 1 33.7525 20.9876 31.0947
2907 1 -0.634989 19.766 32.6165
3241 1 31.3139 19.8277 31.2484
4037 1 34.5893 22.0004 33.798
4606 1 31.9814 23.1428 33.3179
5550 1 0.943832 25.4871 33.8246
5408 1 2.58367 25.8449 35.6431
4283 1 3.07233 26.3657 29.6968
4525 1 2.7572 24.0342 32.4622
3089 1 8.21325 25.2551 35.0412
846 1 5.17207 23.9658 33.494
4706 1 4.01919 26.0404 33.7061
2693 1 3.87352 23.7608 29.9961
7593 1 17.8135 35.6807 33.7211
4913 1 7.16295 26.5154 32.9473
2949 1 11.5506 23.7596 32.7092
7259 1 28.5374 13.2123 34.6585
4528 1 9.45397 23.5237 34.3115
2126 1 9.82497 25.7574 32.8446
7658 1 9.86991 26.988 30.3331
4360 1 10.9464 27.7232 33.6549
5579 1 11.9028 26.4185 31.4202
3073 1 14.2026 26.0744 32.8484
3650 1 12.7842 23.659 30.411
6117 1 15.7746 27.7726 31.7314
7241 1 16.8614 33.2047 33.9848
5394 1 16.3675 24.5627 32.7512
3883 1 18.8861 23.7728 31.9197
1488 1 14.7168 25.8659 30.7522
2520 1 18.5835 25.8656 33.5753
3561 1 17.7455 26.2907 31.6352
3248 1 20.5071 26.6362 32.2432
1018 1 19.365 27.3965 35.0889
5745 1 23.8877 26.2483 33.3866
6698 1 20.4411 24.0807 34.2255
4690 1 22.5009 24.7708 31.8052
6047 1 21.3985 26.16 34.445
2763 1 21.2478 28.9625 33.3329
5491 1 22.8108 27.5824 32.0105
1479 1 13.7042 34.6836 31.2526
5251 1 25.2916 24.6441 33.9369
5312 1 25.8743 26.5821 35.3537
2932 1 25.1089 24.5638 31.2957
5327 1 26.565 25.9187 32.264
135 1 25.9788 28.0576 33.3689
3166 1 20.8506 34.8662 31.9546
4216 1 29.9846 23.9423 34.1833
4041 1 31.911 25.5878 34.2165
3171 1 29.3098 25.3711 31.9359
4596 1 28.4938 26.47 34.2581
4137 1 31.0468 27.3664 32.3715
3817 1 31.4321 24.4216 31.7116
2874 1 35.2935 25.4273 32.4938
7151 1 33.5019 23.9815 31.728
4289 1 33.8406 24.3455 34.535
3798 1 33.0813 26.4807 32.4412
2200 1 35.7779 26.1807 35.0617
5395 1 0.543904 27.7485 34.7433
6537 1 -0.253387 27.6187 31.9325
6762 1 2.26027 26.4887 32.1736
1263 1 2.94476 32.3417 34.133
6609 1 1.68311 28.7659 32.6639
3954 1 3.05584 28.2319 34.4633
291 1 5.52591 27.8897 33.7312
5717 1 3.97318 29.9758 33.0723
4035 1 26.4238 8.91879 35.0461
1237 1 6.94877 30.0317 33.3702
2521 1 8.5557 27.9194 34.485
842 1 8.75778 30.4782 35.0063
6476 1 9.46612 28.5515 31.9428
6540 1 9.16419 30.7364 32.6109
2442 1 11.335 29.7553 34.4873
4835 1 17.8413 34.7985 31.5211
1388 1 13.2932 28.1916 34.8729
1555 1 12.9964 28.3112 32.736
5263 1 15.2024 29.2941 33.5305
1792 1 11.3901 30.6684 32.3844
676 1 13.7426 30.5485 31.8894
3163 1 13.3401 31.1444 34.1865
7959 1 16.6277 27.6301 33.7317
1082 1 17.2936 29.7778 32.8966
4423 1 23.4853 14.6791 17.7457
2080 1 18.7148 28.1093 32.7494
7429 1 15.8724 31.4793 32.9628
6136 1 22.6007 30.5941 35.2251
2120 1 19.779 30.3046 31.9128
5790 1 23.5984 31.4749 31.5277
1730 1 19.4301 29.6982 34.347
610 1 21.5642 31.8576 32.5428
6524 1 26.3287 31.9169 31.0283
5149 1 25.7175 30.9067 33.1172
5471 1 26.562 29.1444 31.2739
6280 1 23.3389 29.7015 33.0338
3167 1 27.2069 30.143 34.6655
5900 1 24.8005 29.1572 35.0195
4769 1 30.3072 27.6776 34.8363
2121 1 29.0624 32.2967 34.2244
5499 1 31.0241 30.4937 34.5915
5910 1 28.0167 27.5643 31.8377
6989 1 32.5081 28.6228 33.8603
4753 1 28.8817 28.7164 33.685
5638 1 30.5848 29.638 32.609
2388 1 32.7679 30.6925 32.2731
7471 1 34.7876 27.6149 33.4924
2207 1 -0.141197 29.7742 33.8648
2622 1 32.1286 33.8894 33.1979
2934 1 35.2259 29.7924 32.1207
2523 1 15.4603 31.3216 35.656
7152 1 1.16139 32.8881 31.2373
5981 1 26.9955 6.31547 33.9315
2371 1 1.93142 31.0412 32.4676
4844 1 35.2272 33.8147 34.4695
4371 1 3.08223 34.4384 34.8154
2673 1 36.2575 34.2919 32.1043
7751 1 0.859694 34.0734 33.864
7722 1 2.94629 34.4029 32.5622
6711 1 5.11006 32.5833 33.7063
2996 1 35.7561 5.14933 34.2516
6594 1 4.11353 30.273 35.4882
2686 1 5.11624 35.4378 33.7131
3314 1 12.5481 35.1258 35.4441
1070 1 10.4752 33.0579 32.5342
5093 1 8.4418 34.5907 33.2994
544 1 7.53788 32.1721 33.4926
1484 1 9.24113 32.8496 34.6843
7644 1 9.18717 35.8842 31.4321
5029 1 11.6718 32.5174 34.6704
2283 1 20.4895 31.678 35.0185
5796 1 26.4485 3.23879 35.5361
540 1 9.37171 21.7034 35.5651
40 1 13.6099 4.99105 35.6551
6692 1 4.93864 21.4275 35.57
2537 1 15.1163 2.81786 35.2205
6157 1 14.7882 26.5075 35.2
4990 1 28.2112 4.74587 35.5098
5596 1 23.968 6.60082 35.6435
6033 1 5.51437 7.21877 35.0985
5623 1 30.9172 33.2981 17.6484
1307 1 9.26993 18.7902 17.6082
4102 1 21.9977 2.11753 17.4615
7943 1 1.65677 28.9593 17.7098
4902 1 25.4167 2.12144 17.4305
2822 1 14.499 16.5704 17.7033
504 1 7.24969 16.7626 17.7234
5862 1 29.1193 9.64306 17.7143
4103 1 23.4772 0.403924 17.3765
1067 1 6.88793 5.61609 17.5342
4663 1 23.5549 25.8347 17.429
3862 1 18.1949 27.8854 17.2299
5621 1 29.1442 34.9189 17.6065
7904 1 1.51456 1.84135 37.7235
1875 1 3.36501 2.56687 39.1698
4949 1 -0.215736 3.31785 36.4643
6923 1 35.7422 2.14749 38.238
7238 1 4.22177 1.09499 37.46
5095 1 4.30163 0.758298 40.3445
4308 1 5.95427 -0.00102842 38.5743
6836 1 7.96622 36.1544 39.8244
3887 1 5.80213 1.43842 35.7787
2380 1 10.1752 1.87617 36.9172
7484 1 9.80251 -0.396412 38.3401
5578 1 8.06661 0.724657 37.0416
535 1 11.3967 3.87106 37.2
2930 1 11.6936 -0.154379 36.6291
59 1 12.5573 2.47559 35.4023
843 1 8.00157 1.79907 38.9864
3181 1 10.4886 31.1817 36.2803
6382 1 15.4583 1.30222 37.6866
2671 1 13.6977 2.98472 39.8171
4545 1 13.1204 1.75361 37.7611
3005 1 17.1995 1.26118 35.7046
6778 1 14.0493 3.80984 37.6318
6604 1 19.1257 4.02038 36.511
6781 1 17.8178 1.90984 37.9836
933 1 11.0137 17.797 36.2587
3680 1 16.1283 3.81478 39.3566
6277 1 16.7317 3.88247 37.0498
3339 1 17.0908 36.0142 38.6077
6759 1 17.7574 3.23179 40.8298
4595 1 19.3836 0.298905 37.7773
3173 1 21.849 1.52466 37.8309
5090 1 23.9318 2.93341 38.5308
1493 1 20.0477 2.95161 38.6747
5502 1 21.6295 2.23529 40.7439
7662 1 24.3102 0.132113 37.9436
6046 1 25.8155 4.33069 37.846
4267 1 26.8358 1.64347 37.2332
5643 1 25.6171 1.27822 39.5896
1731 1 28.3906 2.0015 39.131
1882 1 27.8032 -0.219401 39.0177
7985 1 27.3045 1.47324 41.5036
208 1 1.55547 14.8579 35.9105
6373 1 30.4055 1.47706 37.4429
5160 1 28.538 34.8013 41.6237
7710 1 29.9861 22.385 36.1791
2755 1 17.5069 20.9438 35.5518
6624 1 30.0885 35.9857 37.6617
7869 1 32.2845 0.146579 37.0869
4792 1 30.9461 0.632676 39.8276
1968 1 -0.243001 0.194412 36.9258
5170 1 34.2779 1.10053 39.6241
6374 1 34.1448 3.72896 37.9122
5501 1 32.4238 2.23764 38.3681
4927 1 34.314 1.212 36.4736
5162 1 23.4586 4.01099 35.8519
1080 1 34.1367 35.4416 37.3449
6438 1 2.59792 3.6679 36.5392
1969 1 0.422085 4.82854 38.532
5571 1 3.01292 4.87272 38.4717
1573 1 1.19981 5.54884 36.1207
3877 1 2.00986 6.93401 37.9679
6847 1 -0.592977 7.69248 36.9079
3316 1 5.69346 2.24907 39.1904
1891 1 2.75381 8.30673 35.5887
1323 1 4.39605 7.17708 37.4346
294 1 6.96099 3.28435 40.6674
1964 1 6.46229 7.03411 39.1175
2475 1 5.36917 4.67054 39.1263
3169 1 5.96277 5.36449 37.0767
7975 1 4.52198 3.33028 37.1273
1637 1 7.08492 3.19625 37.1493
2136 1 7.70494 4.7781 39.26
2518 1 9.8068 3.57531 38.704
4205 1 8.93121 4.73459 36.4202
4276 1 10.7453 6.28156 39.2111
2766 1 10.7651 6.16111 36.6551
3175 1 13.2942 6.28997 37.7751
7910 1 12.8349 7.97138 40.7374
3490 1 13.7923 5.70479 40.575
6001 1 15.3319 5.60786 38.1104
283 1 14.1682 7.4101 35.6566
3975 1 9.13434 35.1663 35.989
4284 1 14.9096 7.34792 39.8677
684 1 18.3839 4.56464 38.9339
288 1 17.8655 6.14356 37.1404
2680 1 16.499 8.26407 36.6503
2753 1 20.1639 6.37787 37.4673
4438 1 31.4359 10.2214 35.9191
3489 1 21.9539 4.37423 39.2596
4991 1 26.2992 5.76925 36.1729
4682 1 21.6697 4.39536 37.0998
6152 1 24.4828 6.95131 39.5215
5723 1 21.9136 4.61757 41.8597
3580 1 22.3535 7.19641 37.2711
1180 1 22.0663 7.16373 39.5591
2534 1 26.0542 3.65327 40.3569
6546 1 23.9762 5.68931 37.5615
941 1 27.1165 6.05224 39.2104
3108 1 28.6657 4.0941 37.8436
4842 1 7.42037 26.9038 36.7727
51 1 28.302 6.58977 36.9738
5997 1 30.496 6.71924 37.7002
117 1 25.9918 6.31451 41.3931
5874 1 30.8062 3.31674 39.3898
4780 1 29.9778 5.64319 40.0375
4363 1 35.7094 5.46698 36.7254
1644 1 32.247 5.2916 38.6191
7919 1 30.6962 4.7836 36.756
7883 1 33.5569 7.75599 37.7287
924 1 -0.620613 6.94044 39.0918
5803 1 4.62786 9.48686 36.5668
7504 1 1.68006 9.45119 37.4662
6207 1 3.27658 8.73857 39.0172
7735 1 5.3703 11.4287 35.7633
7235 1 3.88177 6.71874 39.919
6045 1 5.78756 9.13011 39.8482
6838 1 7.02639 8.75118 37.7
136 1 7.29498 10.7128 39.0602
2041 1 8.1339 10.6452 36.5038
5964 1 9.21813 12.1894 35.5437
5314 1 8.62143 6.84987 40.3389
4538 1 9.14662 8.78688 38.3778
2031 1 8.55519 6.50321 37.7712
354 1 9.32258 8.24577 36.026
4641 1 4.39607 32.8745 36.0388
6378 1 13.4928 9.71667 36.3896
6918 1 14.6284 8.2507 37.8911
1490 1 14.1148 10.2573 39.6789
1258 1 16.2588 10.6285 38.1352
1033 1 12.1386 9.27649 38.615
7315 1 17.7311 8.10641 38.8199
955 1 18.8046 10.1954 36.7451
2703 1 18.5839 10.1062 39.0844
4195 1 19.5596 12.4322 38.7048
848 1 20.5148 8.42092 38.1556
4190 1 24.3482 8.74313 41.0779
844 1 21.3267 10.4823 37.514
4615 1 -0.156082 15.7907 52.7435
1635 1 25.8158 -0.320031 36.3005
4474 1 23.1588 9.02489 36.3098
6842 1 16.3755 18.6036 35.7998
6473 1 23.682 11.4496 38.2362
1170 1 25.4294 7.52022 37.457
2684 1 25.1311 10.1676 37.081
7660 1 27.5484 8.79989 37.0244
4793 1 27.1262 11.4604 36.4563
5191 1 28.92 7.76928 39.4741
7473 1 29.5554 9.56299 37.4239
5568 1 30.6318 12.2924 37.2715
5079 1 32.0846 9.6387 38.1352
2840 1 27.6567 10.5985 38.6623
7477 1 32.3635 7.84852 35.8389
6388 1 19.3658 14.1781 36.7619
2456 1 32.9621 11.9804 36.721
39 1 9.35746 28.2251 36.7516
3738 1 35.1043 8.90206 38.839
5037 1 34.0941 9.6691 36.4324
7716 1 33.9529 10.8065 38.7931
214 1 3.77744 13.4728 38.9412
691 1 1.00462 13.3333 37.7891
6833 1 3.12975 11.5031 37.4714
7079 1 3.52469 15.8657 36.9393
780 1 36.2103 11.2297 37.7757
761 1 1.87888 17.9526 36.92
4226 1 1.72112 11.2018 39.1819
5990 1 5.04151 10.9634 38.4691
7404 1 4.75226 13.4012 36.9789
2933 1 8.38706 13.6192 39.9998
1658 1 6.65308 12.494 37.4498
2133 1 5.99202 15.6852 36.7476
1331 1 6.44292 14.1373 38.8208
6999 1 5.54434 12.7809 40.3728
3413 1 11.1369 13.0641 36.1607
4144 1 9.23509 12.3148 37.7969
5486 1 11.0981 12.5243 39.1298
7006 1 10.1227 14.8967 35.5125
1903 1 8.56874 14.8336 38.2482
3961 1 15.2908 12.3094 36.8482
380 1 13.3799 13.5657 37.1757
5239 1 13.1334 11.5568 38.0025
2060 1 12.7878 12.2737 40.5736
6597 1 15.3682 14.4552 38.629
1957 1 15.1397 15.5683 36.1614
615 1 14.9318 12.48 39.427
1242 1 13.0036 14.7386 40.128
1003 1 17.9952 12.5351 36.2049
2519 1 19.7228 22.314 35.9792
6289 1 21.6235 14.712 37.6652
2609 1 20.3087 12.048 36.1854
3178 1 18.5702 14.3012 39.0413
2128 1 17.1008 14.6289 37.2263
1814 1 17.2359 12.5507 39.0356
3480 1 22.3606 12.6064 36.4572
4055 1 24.3642 13.9802 37.749
4679 1 21.8376 12.6719 38.7286
2127 1 22.8761 14.7035 39.8807
2429 1 15.5811 5.53496 35.675
470 1 23.5614 15.6617 36.3077
4602 1 24.7929 12.2129 36.2038
6724 1 26.4577 12.615 38.415
2306 1 26.3512 14.8913 37.7377
7559 1 35.6745 35.5501 53.0951
1655 1 32.9604 14.4606 37.2424
3886 1 28.0589 13.7906 36.9749
1172 1 30.1329 13.0803 39.8743
4357 1 32.5673 15.7082 39.3221
4273 1 33.1081 17.1128 37.2267
2942 1 30.4041 14.9344 38.1483
5318 1 27.7614 14.7271 39.4637
5402 1 17.9422 28.796 36.1913
4452 1 3.68181 5.79733 35.8012
3881 1 34.9505 13.5879 37.9195
4683 1 32.5814 12.9797 38.9642
929 1 0.370284 16.097 37.4236
134 1 -0.0718707 15.4306 39.5986
3669 1 2.22064 16.0855 38.6836
7560 1 4.05942 18.0753 38.2708
2294 1 30.4015 15.3707 36.0755
7718 1 1.96435 19.2028 39.1919
7724 1 3.12561 19.8987 36.7339
3805 1 0.28694 17.7783 38.9151
6536 1 -0.833008 19.9625 40.1266
1248 1 4.93778 16.1166 39.2823
3676 1 5.56573 19.1012 39.7134
2993 1 7.08473 16.8833 38.5577
3162 1 7.87786 18.573 40.785
595 1 8.49274 19.4371 38.5628
3025 1 4.52972 17.8567 36.1009
6951 1 11.2255 14.8474 37.8667
6274 1 9.03617 16.5966 40.1247
6067 1 8.16203 16.2725 35.9597
1310 1 10.8419 19.8545 38.2076
2277 1 11.6855 20.165 35.8702
1640 1 9.33645 17.4712 37.6168
3251 1 6.33699 31.4128 35.6022
1088 1 11.1076 17.4296 38.9436
1424 1 12.8399 18.9734 37.3602
1491 1 13.583 16.0778 38.0425
3880 1 13.9623 18.3843 39.2096
1756 1 12.467 20.2763 39.9126
5250 1 17.529 26.0734 35.8055
4114 1 15.7634 17.432 37.6033
7799 1 34.9341 28.6827 35.3286
836 1 17.9597 16.5456 36.1652
3008 1 19.3255 18.3227 40.1961
7230 1 19.7361 16.2908 38.1242
4527 1 27.9577 28.1556 36.1548
4526 1 24.235 16.5363 38.7699
4931 1 22.0285 17.9956 36.1143
3405 1 20.4393 18.7427 37.9432
4834 1 22.1502 16.9041 38.6005
6760 1 23.6959 19.6131 35.9119
1241 1 29.0743 10.9896 35.2515
1804 1 21.9577 18.3852 40.4518
1161 1 28.7098 16.922 40.2953
4524 1 23.414 18.8533 38.2225
6138 1 25.0182 17.8479 36.4905
6603 1 27.6384 18.3367 36.3052
3083 1 28.5583 16.1822 37.4692
7100 1 26.2592 19.4606 37.8909
5166 1 27.1271 19.8233 40.1337
4790 1 10.6541 10.3646 37.101
5966 1 28.9168 18.7484 38.2511
6785 1 30.4919 17.5514 36.6879
6636 1 30.9328 20.3096 36.9213
5812 1 32.4907 18.9368 37.8612
4847 1 33.8977 20.4754 36.367
1907 1 23.6588 18.6453 53.2799
5954 1 33.0173 18.5688 40.0484
1319 1 34.9152 16.1282 38.1616
6285 1 35.6921 18.1157 36.3669
391 1 34.79 18.9802 38.3707
4155 1 35.1099 17.2524 40.4912
6763 1 0.45628 19.9668 37.3458
4063 1 1.75964 21.7874 38.9175
4833 1 2.92069 22.1198 36.6157
754 1 0.358741 22.703 37.0604
1075 1 35.2474 21.5177 38.1754
2202 1 3.87049 24.2678 35.7342
787 1 5.38017 22.713 37.4984
938 1 3.94717 20.656 41.0063
3978 1 5.57968 19.8396 37.6614
428 1 4.00267 20.8833 38.7298
6359 1 7.04784 21.0982 39.226
1590 1 5.24516 22.3299 40.1868
516 1 9.19865 21.6302 37.8263
4221 1 7.31331 23.3945 39.1761
1975 1 11.2113 22.6504 37.5016
3574 1 10.8746 22.2391 39.79
6694 1 9.74799 24.1677 39.2378
7875 1 9.12937 23.9658 36.9379
4715 1 8.89726 21.4998 40.8442
7486 1 13.5475 21.4563 37.7433
3566 1 15.6886 29.1534 35.7341
5654 1 15.5558 23.1314 38.3304
2762 1 14.5751 20.9103 39.3616
7323 1 14.1321 20.0119 35.7742
2606 1 13.433 22.8252 39.7236
3795 1 15.3006 21.9953 36.4834
64 1 16.7097 20.8604 38.1203
6934 1 18.0041 18.4675 37.5085
7905 1 18.0595 22.9543 37.6886
2358 1 18.5277 22.4212 39.9201
636 1 1.79463 32.0604 36.292
4870 1 18.9136 20.5194 38.2937
1987 1 22.0339 20.6278 37.6795
279 1 23.7362 21.8499 36.6214
4684 1 22.5029 23.0242 39.2462
6061 1 5.00322 35.5842 36.3425
7002 1 24.7082 21.2481 38.629
5758 1 31.8497 23.5265 35.8825
3558 1 26.3472 22.1884 37.3405
6948 1 28.3656 20.682 36.6133
6143 1 24.0753 24.9421 39.7221
6381 1 26.3049 22.4278 40.1171
4199 1 28.8104 21.0943 39.2653
1918 1 23.5883 25.7243 35.723
4696 1 28.3133 23.2583 37.9136
5907 1 30.9583 19.9552 39.5295
3882 1 26.9105 24.3315 35.7636
7806 1 30.6466 22.1461 38.9039
6275 1 32.8135 21.6118 38.2099
7416 1 31.9625 24.0254 38.1983
7087 1 33.9015 35.1326 50.8561
3076 1 0.549485 30.126 36.4354
6298 1 33.8785 22.8149 36.1768
2759 1 14.0848 0.512829 35.6568
364 1 34.5283 23.1055 39.6198
1411 1 2.4077 24.1453 37.7315
7590 1 0.723855 25.1821 36.6588
7349 1 0.560037 26.291 38.799
7008 1 1.54682 27.3779 36.8991
5176 1 3.30876 26.3126 38.0545
7413 1 5.63487 26.3998 38.1738
598 1 4.5775 24.52 39.1311
3026 1 4.5467 26.7445 40.8769
118 1 6.87571 24.2882 37.2445
6371 1 6.37471 25.0016 40.8
131 1 9.23861 19.3653 35.8385
1192 1 6.47065 27.8226 40.4791
4919 1 7.92313 26.0754 39.2683
6997 1 9.35758 28.2266 39.2651
4556 1 12.0032 24.7652 39.1381
1077 1 12.0069 27.6324 38.3368
4772 1 9.95627 26.3957 38.0029
5742 1 13.4725 23.7971 37.4117
3238 1 12.5487 26.0478 36.6508
204 1 14.5123 26.0452 38.0017
4127 1 14.199 27.6538 39.6474
5113 1 12.7202 26.3848 41.1916
2303 1 6.29163 -0.0173592 53.7836
5972 1 15.7742 24.5639 36.4992
6141 1 17.5515 25.2437 37.8037
6300 1 31.7209 19.8575 53.0028
928 1 16.3333 26.5885 39.889
5418 1 19.7743 24.5686 38.6452
7246 1 19.9057 25.1206 36.1507
3818 1 6.93659 18.0701 36.6121
4065 1 19.207 27.2614 37.2447
5396 1 21.5477 23.3165 36.0443
4135 1 21.7007 26.8081 37.1366
2697 1 21.0133 26.8706 39.3011
4286 1 22.5738 24.6846 37.6603
1396 1 24.2545 26.6466 38.0094
2612 1 24.889 24.0038 36.5233
937 1 23.1924 27.3354 40.0023
3016 1 26.1301 26.6536 39.3648
7568 1 25.865 28.1472 36.9516
5331 1 20.8075 20.1052 35.8628
4204 1 26.0311 24.4649 38.2761
3075 1 28.008 25.9748 37.1474
7811 1 29.9997 25.4647 36.0458
7083 1 28.925 23.1186 41.0809
772 1 29.849 25.1014 38.89
5728 1 30.1331 28.0857 36.9616
6221 1 30.175 27.6934 40.067
1904 1 -0.674742 -0.357055 50.9727
6197 1 35.7816 27.2058 37.2497
774 1 -0.795071 28.7887 38.8322
921 1 33.4415 25.4791 39.0421
6834 1 33.6392 27.8166 37.9595
681 1 31.4814 26.5886 37.8665
3157 1 33.3636 25.4811 36.44
3905 1 32.7127 27.5423 40.5867
4122 1 32.9955 32.6922 51.3055
212 1 35.1308 24.308 37.6328
5557 1 34.8543 27.0607 40.1675
4942 1 31.7154 32.4728 53.6471
5811 1 34.7359 16.0461 35.7644
1652 1 1.95668 28.2672 39.0703
3236 1 3.05633 29.4903 37.3723
5246 1 2.76443 30.9865 40.2568
6689 1 0.51379 32.573 38.3078
6206 1 1.3362 29.0611 41.1075
3577 1 1.09141 30.3861 38.8613
4768 1 3.42556 32.3187 38.3593
6231 1 6.77856 3.12586 53.7744
1168 1 4.23682 27.7708 36.2385
1009 1 5.15309 30.0321 37.6536
7721 1 4.77202 29.1989 39.5235
2525 1 6.74653 28.4768 38.3271
6441 1 5.4396 31.6691 39.7197
6945 1 11.5376 28.4721 36.3328
7319 1 8.34812 30.3008 37.209
6439 1 10.8933 29.9289 38.0596
1083 1 11.51 31.599 40.9567
4361 1 7.88988 30.664 39.6793
860 1 9.56242 31.833 38.4285
3185 1 32.7877 27.4202 35.6963
4222 1 14.0882 28.6521 37.4068
3904 1 12.0161 31.9376 38.4658
776 1 12.9605 30.5352 36.4393
121 1 15.2429 29.5356 39.5281
1585 1 12.6809 29.4605 39.6258
1946 1 14.3993 31.8145 38.1633
7000 1 20.4441 16.2924 35.8326
1031 1 16.2841 27.5101 37.0221
763 1 19.6816 29.8586 37.1308
680 1 17.3692 29.1719 38.6032
845 1 16.8984 31.3374 37.8853
2441 1 17.2721 30.8442 40.5437
3827 1 18.8581 31.6976 39.2888
3321 1 22.6617 33.15 36.3272
2602 1 19.4843 28.669 39.4847
2353 1 21.9569 30.9193 37.5213
7177 1 21.1884 28.5198 35.8061
7251 1 21.9689 28.924 38.6078
7077 1 20.9555 30.8388 39.6531
4355 1 25.4132 28.7391 39.2248
1330 1 23.8793 29.2988 37.1537
4688 1 27.4965 30.3583 39.5496
3825 1 27.2296 29.9992 37.485
526 1 24.5825 30.9339 38.7464
6205 1 26.4684 32.4023 38.09
6118 1 28.1862 28.0064 38.561
3484 1 25.4009 31.3049 35.7489
7668 1 30.9038 31.4042 37.2301
3402 1 29.1178 30.4056 35.9706
6294 1 29.576 29.8512 38.5121
4142 1 31.6541 28.894 38.8039
5403 1 30.7656 31.4429 40.2815
1965 1 27.549 32.1076 36.0549
2852 1 33.0739 32.1305 38.8029
7244 1 32.2168 29.51 36.5851
7092 1 34.3795 29.7799 37.5464
529 1 33.5768 29.8894 40.0028
2368 1 35.4769 31.0388 38.9641
6939 1 35.6654 33.9045 51.2015
689 1 0.100143 34.5547 36.1299
3357 1 34.9706 33.2296 39.8538
7730 1 2.23906 -0.186033 36.6868
1844 1 2.12495 -0.0645065 39.2563
7558 1 2.43598 34.5153 37.0962
1719 1 -0.00104302 34.8528 38.692
6960 1 1.98529 33.8351 39.7937
614 1 23.4831 21.1372 53.6045
6839 1 5.54257 33.7682 38.1309
7314 1 7.2186 32.1524 38.2261
5962 1 4.40579 33.4718 40.5212
4385 1 4.07725 35.1997 38.6811
2045 1 7.59877 35.1126 37.6912
4923 1 12.0618 35.3714 38.8266
2123 1 10.8495 33.9452 36.9999
5087 1 9.25178 34.0123 39.2149
4370 1 8.48494 32.9475 36.5984
1967 1 11.2215 33.7996 40.3951
6130 1 13.2658 33.2165 36.6734
6060 1 14.842 35.4137 37.6509
7878 1 14.0913 -0.0932399 39.6757
1415 1 15.9129 33.5758 36.7276
1951 1 13.7805 33.7457 39.1096
6837 1 15.9715 33.0954 39.8693
124 1 33.311 5.21516 36.3646
2675 1 16.9788 35.4882 36.3725
3981 1 17.8619 33.589 38.5357
2457 1 16.6999 35.1506 40.694
5635 1 17.9607 33.2785 41.3132
6301 1 18.8148 33.4956 36.1729
2841 1 20.6659 32.8107 37.7195
1318 1 19.6392 34.8735 38.3798
4607 1 21.2196 35.5422 36.7648
840 1 22.5371 32.6536 39.592
2350 1 24.5423 33.4336 38.3618
795 1 22.2752 34.9444 39.0772
3986 1 23.7008 35.088 36.7787
940 1 23.1569 0.752039 39.7989
6600 1 27.5723 34.0258 39.6898
5150 1 25.8475 35.378 38.6947
2913 1 27.54 34.9611 37.3812
709 1 25.3907 34.0242 36.0712
3002 1 28.2033 -0.341104 53.5272
6932 1 24.1516 34.894 40.4047
6215 1 29.8859 35.1084 39.7452
3186 1 29.446 33.6682 36.8165
6949 1 35.998 27.6928 53.795
2035 1 30.8052 33.2853 39.1204
6922 1 28.7584 32.1971 38.567
7714 1 26.3778 13.607 35.3851
7411 1 31.9195 34.3988 37.558
5082 1 34.7364 35.8464 40.4463
6673 1 12.0905 7.97197 35.7582
5236 1 35.1489 33.2405 37.2627
5265 1 32.9966 33.6367 40.7302
3841 1 -0.326727 1.01259 41.8612
7962 1 1.79616 1.27485 41.0781
7273 1 0.0896101 0.543561 39.4464
4197 1 1.9367 0.964406 43.5468
5905 1 35.4074 3.23766 40.8224
7160 1 3.13565 35.8792 41.4766
5094 1 1.24327 36.0494 45.2443
6754 1 0.390425 1.9225 44.9173
7271 1 4.27496 1.28433 42.3853
6681 1 6.86201 0.846108 40.9699
7340 1 6.64202 1.56566 43.4479
859 1 5.56372 35.7491 43.2212
5648 1 7.10352 0.0415375 45.0556
3752 1 4.64586 0.533561 44.9248
1646 1 4.79067 3.18809 45.0373
5798 1 8.19289 -0.24006 42.2646
2467 1 10.7556 1.03801 42.7399
4299 1 10.2586 -0.416343 40.7235
199 1 11.2942 1.51072 39.4456
5267 1 9.3728 -0.227495 44.1354
44 1 9.28148 1.99222 41.0085
1595 1 8.9481 2.19099 43.4729
5508 1 12.299 3.62573 44.3423
4118 1 11.2895 1.52582 45.1399
1880 1 12.7805 0.914506 41.3967
5010 1 10.8004 3.3112 42.0863
2530 1 13.5129 3.19077 42.2859
545 1 15.3552 1.53653 43.0774
849 1 15.7074 1.78682 40.8709
2047 1 18.3886 0.566912 39.8118
4277 1 14.8849 3.68963 44.4776
5008 1 17.2732 0.343559 41.9474
6779 1 18.0627 3.49716 45.013
857 1 19.0202 0.723104 44.0704
6859 1 19.181 1.56343 41.731
5088 1 17.3917 2.66033 42.779
3735 1 21.3458 0.212961 44.9528
4382 1 21.3402 4.28334 44.3092
6528 1 21.1789 0.353747 42.0159
7265 1 20.9436 0.186056 39.3995
1954 1 22.2276 35.3647 41.2474
943 1 23.551 0.220361 44.0118
527 1 24.0876 3.07915 41.8462
3714 1 25.1857 1.88477 44.6199
6211 1 24.0241 0.680917 41.6891
5801 1 26.4909 0.35923 43.3785
6042 1 26.2529 3.77725 43.061
2292 1 26.4188 35.8108 41.1095
4057 1 29.2947 0.547238 41.1424
2843 1 30.6805 1.27741 43.5296
758 1 28.439 2.15807 43.2443
1887 1 29.9338 3.70171 42.9358
522 1 33.8138 2.64145 42.5112
5311 1 31.8103 2.44051 41.6902
2630 1 34.886 1.62306 44.5486
3022 1 32.8442 0.512951 41.3268
7444 1 32.8045 -0.0282066 43.697
5072 1 2.81854 3.09755 42.687
5182 1 1.45832 6.11617 40.429
4207 1 0.876241 3.12775 40.3904
7753 1 3.68519 6.4338 42.4659
4846 1 1.64195 5.17162 43.3766
2625 1 0.511161 2.94681 42.8332
7812 1 2.4587 7.48504 44.2205
7798 1 7.69998 6.2547 42.2434
5668 1 5.12822 3.44753 42.3502
4206 1 5.92943 6.06921 43.5221
6606 1 2.90317 4.24887 40.8312
7805 1 5.72809 5.35627 41.1391
925 1 7.12896 4.01397 43.3778
1344 1 10.1788 4.9496 43.6141
4866 1 7.99254 5.84434 44.6127
6052 1 9.28663 4.72412 41.0106
2767 1 11.6319 4.0027 39.9135
6843 1 12.1624 6.57479 44.5019
3559 1 11.3563 6.06283 41.4531
7661 1 15.68 4.01599 41.7915
2683 1 13.1159 5.25681 42.9569
7591 1 15.4623 7.71233 46.3688
5326 1 15.5827 6.28408 42.0571
1813 1 14.6281 6.68756 44.212
3483 1 13.6545 5.4577 45.8331
1022 1 19.4061 6.53125 39.9003
7651 1 16.2882 9.71583 40.1531
6056 1 16.9379 5.08194 43.8127
6293 1 16.9591 5.95031 39.9012
5968 1 17.9946 5.57957 41.7923
1800 1 20.5937 6.66942 42.018
1809 1 20.0029 3.15932 42.9171
2362 1 17.283 7.83854 41.1977
4033 1 19.8337 4.55465 40.7284
4921 1 19.366 5.59017 43.8005
4285 1 22.5552 1.94411 43.307
2070 1 22.9445 6.49254 41.6453
5158 1 23.6093 3.90481 44.0832
5276 1 24.2955 4.63629 40.0061
7810 1 22.1861 6.77316 44.013
3240 1 26.9925 6.38692 43.6684
6308 1 24.6319 5.70052 42.8164
1819 1 28.1384 7.85867 41.655
7913 1 24.8178 7.54132 44.4488
6623 1 28.5373 3.64903 40.8032
2143 1 28.6199 5.50735 42.165
5737 1 31.4755 5.12138 41.7833
5419 1 30.4524 5.90874 44.5672
863 1 28.5889 6.793 45.2883
2699 1 33.2812 3.55951 40.1183
4855 1 33.9446 5.14774 42.1872
7183 1 34.7101 5.13563 39.5247
707 1 32.7403 7.9362 42.3991
6123 1 33.3807 6.83008 39.9766
1728 1 -0.527049 5.40108 41.5245
3421 1 36.0273 4.60962 43.6824
2040 1 1.71123 10.7317 41.6495
7178 1 3.30641 8.88372 41.7751
1821 1 1.18655 8.72879 40.3647
2132 1 0.969599 9.3431 44.0686
2851 1 0.799852 7.60368 42.2981
2516 1 4.02904 10.6972 40.4857
132 1 7.10695 10.985 41.2583
7185 1 4.96767 8.12182 44.0357
3654 1 2.67209 11.9726 43.5134
6515 1 5.54877 9.70332 42.3397
1878 1 5.77566 7.64417 41.521
6214 1 10.6239 8.47386 40.3307
1869 1 8.0829 8.95907 41.0559
3815 1 10.0993 7.79134 42.7677
5036 1 7.33671 8.50602 43.4985
778 1 9.79158 10.2163 42.1957
3499 1 12.6024 8.78343 43.0557
6917 1 14.6104 8.7302 42.1481
2595 1 14.4903 9.43586 44.1699
3422 1 11.9255 11.161 43.5127
998 1 11.8969 10.2137 41.1259
1563 1 14.2086 11.2544 41.7736
6055 1 19.4044 8.85598 40.9548
1675 1 16.852 8.02626 43.906
5436 1 21.945 10.4358 42.8214
1119 1 20.8252 10.6789 39.5066
7831 1 18.8705 11.2898 43.676
3666 1 18.7909 11.1362 41.3188
6607 1 23.3519 8.63888 42.9506
3086 1 21.8059 8.69815 41.2559
7179 1 22.4104 11.8977 41.0135
3890 1 23.2008 9.05715 38.5408
4302 1 22.8776 10.3412 46.0144
4 1 23.0928 11.9408 43.8364
5329 1 26.1217 8.78185 42.8381
5334 1 25.6324 10.8016 39.7634
5157 1 24.6279 10.6063 42.5029
1485 1 26.4644 8.3049 39.6745
5490 1 24.7965 9.79962 44.5466
1255 1 28.2052 8.94204 43.754
7803 1 28.9517 11.4587 43.3398
5243 1 30.3789 7.26159 42.1467
4349 1 27.2284 9.84355 40.9691
7795 1 29.5918 9.52749 40.3966
5520 1 32.527 10.2163 42.1281
4559 1 28.4524 11.722 40.7577
4058 1 30.2557 9.65656 42.7104
1960 1 30.9214 8.08138 44.4534
7882 1 31.1721 7.94175 39.511
7237 1 35.661 8.1836 40.9681
125 1 33.5319 9.11622 40.3268
62 1 -0.417984 10.5514 40.3145
5181 1 35.4211 7.13614 43.5072
7823 1 34.8584 9.23867 42.6597
2199 1 -0.303965 11.5995 42.8885
1240 1 1.82845 13.9912 39.6685
7328 1 1.13697 13.5879 42.7141
3246 1 3.13068 13.9963 44.5414
5959 1 3.41957 13.0967 41.4719
3036 1 4.83002 14.8956 41.4094
2770 1 4.86566 12.3088 42.8258
3719 1 5.66577 14.2184 44.1241
7870 1 6.85464 13.6788 42.1005
7487 1 7.12653 16.2957 43.0334
5586 1 9.37445 10.9868 40.0039
3079 1 10.3895 14.4995 40.2183
1508 1 10.2175 12.8421 44.235
2145 1 8.04587 14.2698 44.2845
6797 1 8.84427 12.3215 42.2551
7243 1 9.08005 14.9095 42.248
7808 1 11.0591 12.8787 41.8059
2941 1 11.7417 14.7162 42.8981
639 1 13.4578 12.9805 43.1573
1900 1 14.7218 13.8498 41.3462
2205 1 16.5176 12.1799 41.5098
7672 1 15.1134 16.4096 39.8995
3515 1 16.6681 9.87631 42.3803
3557 1 20.6593 13.685 40.6653
7341 1 20.2095 15.317 43.4471
6074 1 20.6155 12.6725 42.6871
2688 1 16.7228 14.5083 43.3445
1506 1 16.8043 14.7505 40.7629
3900 1 18.5804 13.5445 41.8397
6440 1 22.5194 15.912 43.7314
3194 1 22.7117 13.9929 42.4236
4678 1 23.7349 16.1292 41.4304
5156 1 21.5392 13.7638 44.8349
2369 1 25.4332 14.8764 40.0125
7667 1 26.8846 11.2076 42.9008
2917 1 24.3132 12.6535 39.8798
451 1 26.3881 12.8475 40.9603
2927 1 25.4287 15.3619 42.4179
5830 1 24.6906 12.8806 42.3407
7248 1 31.6939 11.1263 39.8843
3009 1 27.7403 15.186 44.8189
3636 1 28.5266 13.4293 42.5202
4372 1 30.7027 11.9183 41.8863
3329 1 29.8543 15.2941 43.9411
2607 1 32.0905 13.8879 41.9246
5725 1 27.5452 15.4136 42.2249
3100 1 34.346 11.1912 43.8056
3155 1 0.0496343 15.7663 42.3688
4442 1 -0.428504 12.7465 39.7256
5601 1 33.3376 13.6945 43.8228
1406 1 33.9757 11.8148 41.3105
3404 1 34.2993 14.5886 40.0709
7564 1 35.5429 13.6273 42.0237
140 1 35.6276 12.8056 45.056
6518 1 2.51886 15.8026 41.1169
5476 1 3.33889 18.2804 41.196
6752 1 2.348 15.9467 43.2539
3347 1 0.776268 17.6269 41.1641
2269 1 2.27019 18.2143 43.511
4843 1 -0.0709656 19.4602 43.6057
6350 1 3.6387 16.153 45.3569
1012 1 1.66617 20.0642 41.8941
6626 1 5.61519 17.75 41.7218
6203 1 4.57767 16.4025 43.3676
1478 1 6.40309 16.5371 45.6577
4550 1 6.57624 18.6093 43.7249
4672 1 4.83828 18.3035 45.3965
5428 1 4.32538 19.3517 43.0412
4128 1 6.97441 15.8821 40.7016
4373 1 8.29528 19.7301 44.7129
5978 1 10.1046 18.8156 40.8003
6845 1 9.9067 20.5291 43.0382
1404 1 9.1503 17.9364 43.1337
1654 1 8.51619 16.8294 45.4897
2532 1 10.0049 15.7669 44.098
5317 1 17.3587 16.4187 39.3405
6539 1 12.3588 16.6746 44.7011
4036 1 10.6837 16.5911 41.944
1672 1 13.8527 15.513 42.9423
3116 1 13.0435 17.0484 41.3546
2150 1 12.0012 18.6546 42.5655
4043 1 16.821 18.9186 39.5458
1324 1 18.6389 16.0503 41.5612
362 1 16.288 16.5756 42.3504
6379 1 17.9327 16.2564 44.1932
622 1 19.0819 19.2041 43.6731
6770 1 17.413 18.5814 41.6874
371 1 20.6094 17.2555 44.856
7165 1 20.0489 17.6175 42.5643
4362 1 20.7053 17.3036 47.4346
3628 1 22.3414 17.9587 42.717
4788 1 24.9855 18.7506 39.7701
4436 1 21.3952 16.1441 41.031
6062 1 21.4823 20.8339 42.0784
5081 1 26.8974 17.6883 41.5977
1879 1 24.4608 18.3342 41.8944
4514 1 26.7396 17.5882 39.0221
7171 1 27.1957 19.3171 43.6879
2232 1 26.471 17.2579 43.6692
6768 1 25.5613 20.6395 41.5589
3011 1 29.7978 14.9014 41.5612
3004 1 29.01 17.4456 43.0273
7419 1 31.6304 16.3947 41.2288
386 1 31.0986 19.1637 41.7043
363 1 30.8294 17.5195 39.1196
2137 1 31.1719 17.924 43.966
4368 1 32.2542 15.8007 43.7037
4303 1 35.1476 18.9382 41.8641
5961 1 32.9547 18.1774 42.4499
4038 1 34.0601 15.6493 41.7899
2689 1 35.1856 17.2079 43.1217
5903 1 34.0829 19.7036 44.2901
6044 1 35.9156 21.0747 45.4385
159 1 0.863631 22.0542 43.0642
4951 1 1.05782 23.6217 44.9422
198 1 2.4931 22.434 41.2446
7257 1 2.84794 20.96 43.9774
368 1 -0.365504 21.9456 40.8041
4758 1 6.4538 20.4154 41.5731
2215 1 4.61265 22.0666 42.7477
2043 1 5.81626 20.6037 44.866
4767 1 2.95098 23.592 43.5267
2139 1 7.02951 22.8079 41.6786
2153 1 7.87098 21.4945 43.2119
5653 1 9.61979 23.1353 42.62
791 1 11.659 21.7507 41.8394
2438 1 11.8456 20.4787 44.4451
4695 1 11.9748 23.007 44.4118
6228 1 9.66376 21.9797 45.05
297 1 15.7193 22.7867 40.771
6522 1 13.8224 21.0326 41.9077
5352 1 14.9701 18.8318 41.5524
7015 1 13.9804 17.7943 43.5397
7732 1 13.8317 23.2541 42.5863
1008 1 14.4765 20.131 43.8547
3819 1 15.8582 22.0676 43.062
4376 1 13.3192 24.7261 45.2757
216 1 16.5131 20.6975 41.0102
207 1 19.1281 20.6958 41.7053
7673 1 17.7404 22.9701 42.2997
2701 1 19.463 21.3043 44.0743
2865 1 20.5697 22.2458 38.2057
5414 1 22.0411 22.3105 44.1118
3265 1 21.5615 19.5379 44.3958
5244 1 23.4082 20.6479 40.5767
7642 1 20.8591 20.3007 40.0387
3035 1 23.6563 20.6436 45.5157
2449 1 19.8378 23.5448 43.7824
2834 1 28.957 18.8896 41.0225
129 1 23.6233 20.4887 43.0209
2056 1 24.5383 23.0083 41.4638
7976 1 26.9044 22.9153 42.5543
5818 1 28.1227 21.6653 44.3412
4375 1 27.9439 20.7504 41.8123
6798 1 30.2464 21.3879 41.5681
866 1 30.1814 20.3869 43.7228
194 1 31.1254 23.1641 43.0165
3804 1 31.9083 23.5315 40.5401
613 1 29.5529 24.7452 42.1628
2392 1 32.1409 21.1108 42.6193
7007 1 33.3023 20.9239 40.7351
3000 1 34.9926 21.1366 42.6466
1230 1 35.712 23.883 42.8565
6437 1 33.6965 23.0071 41.6432
127 1 32.2957 20.691 44.9212
6150 1 2.43257 25.2489 40.0796
7155 1 0.523266 26.7262 40.877
1549 1 0.606229 23.7636 39.4389
7194 1 4.52679 25.8307 43.7132
6443 1 0.890943 25.8781 43.949
7960 1 1.30995 24.3765 41.9505
7331 1 2.55148 26.7276 42.237
3095 1 4.28979 24.0697 41.515
4934 1 5.07753 28.0931 43.5393
5663 1 6.09122 24.041 43.2904
1649 1 6.72383 26.2456 44.5249
7891 1 6.45141 26.3837 42.3162
6124 1 11.4588 24.0369 41.4516
2862 1 8.48251 24.6925 41.4182
5738 1 10.3444 26.1144 43.1748
5671 1 8.70021 27.5101 41.7102
5808 1 10.448 26.3618 40.3922
6354 1 8.20576 24.7443 43.8846
3182 1 12.4183 25.1095 43.2792
4777 1 14.1932 24.8856 40.1602
454 1 15.8778 25.1432 41.8244
7327 1 14.5657 27.6863 42.0191
41 1 11.9733 27.8215 42.8207
633 1 14.0911 26.9406 44.3865
6068 1 15.8551 24.4455 43.9398
1317 1 17.4534 24.3503 39.7439
6544 1 20.2188 22.7682 41.5382
4215 1 18.0874 25.2276 41.7437
1090 1 20.2336 26.3978 44.5582
304 1 18.8556 26.4121 39.943
4857 1 16.3629 26.9432 43.4608
1394 1 18.6813 27.6625 43.3647
6050 1 18.154 25.1792 44.134
1806 1 22.4082 23.0793 41.7645
1076 1 20.6373 27.1368 41.9528
766 1 21.6609 25.2147 40.9691
5264 1 23.0905 26.0663 44.6697
1743 1 23.2507 26.3553 42.1848
7726 1 21.5817 24.9477 43.3335
7485 1 26.6868 24.6201 40.5641
6687 1 24.9614 22.0375 43.8956
2221 1 27.1991 25.3028 43.2837
453 1 24.3151 24.7035 43.1159
2944 1 25.4515 26.0501 41.7414
5797 1 25.0597 27.4554 43.8179
2244 1 31.2466 25.8704 40.7802
7807 1 28.2276 26.0742 40.3158
3901 1 29.046 26.243 44.8065
5595 1 31.2957 25.6107 43.3076
7329 1 29.4619 27.0173 42.4383
7561 1 35.7616 24.8256 40.6987
3179 1 33.3179 25.4733 41.817
3823 1 35.4592 26.7269 42.7584
1402 1 33.4275 24.5493 44.082
906 1 33.3104 26.9275 43.5646
7339 1 0.867319 28.0696 43.0821
4287 1 0.528127 32.1768 40.8329
2605 1 1.86933 31.094 42.4566
1723 1 3.22951 27.5157 44.4907
4997 1 -0.711223 30.2806 42.7964
6032 1 0.563398 30.2267 44.6763
5904 1 2.7812 29.6457 43.6923
767 1 4.07801 31.566 42.0953
2366 1 5.98767 29.6477 41.8697
3665 1 3.72487 28.8316 41.6883
1260 1 5.56042 30.5229 43.9267
5873 1 7.13419 31.9374 42.0843
1329 1 7.52502 28.5753 43.4341
4152 1 8.62142 29.9724 41.7765
5328 1 7.66638 30.4156 44.83
469 1 10.5819 29.198 40.9072
4604 1 9.76472 28.5589 43.5971
2756 1 10.8619 30.6626 43.313
5115 1 9.17889 32.2375 40.8074
3808 1 13.6432 31.5109 40.2044
7961 1 12.4142 29.4855 44.5266
4516 1 12.6473 29.742 41.8635
312 1 13.4551 31.3422 43.1234
2286 1 17.0505 28.0953 41.5392
6790 1 14.5557 29.3289 43.7227
2597 1 15.1187 30.2381 41.75
3423 1 17.228 30.194 42.7683
4703 1 18.1264 31.0184 44.9325
4999 1 16.1009 32.2487 42.3684
7733 1 15.505 31.2731 44.2782
61 1 22.0546 29.0107 41.0469
4154 1 19.4912 29.0506 41.8744
2064 1 20.4667 30.5118 43.8403
5475 1 21.9647 28.2715 43.4787
4535 1 19.7633 31.5442 41.7423
4760 1 22.1336 31.2332 42.4246
5261 1 25.0395 28.6051 41.7008
7881 1 23.955 30.7699 40.8532
1339 1 26.2502 29.4191 44.1828
3019 1 24.8831 31.2852 42.7098
6927 1 27.2105 30.4802 41.7114
5636 1 27.1815 28.0732 41.1181
1970 1 29.1497 29.5524 41.2333
2054 1 27.3295 27.8016 43.4982
1810 1 28.4887 32.3823 41.1502
7157 1 30.3959 31.1709 42.6088
4529 1 28.6039 29.6248 43.4327
686 1 31.5233 28.4039 43.3635
375 1 35.7114 28.718 41.2102
7009 1 31.4716 29.4922 41.1954
4218 1 32.6233 31.499 41.5617
3803 1 35.331 28.6427 44.1298
6550 1 33.9358 29.5219 42.2976
6535 1 34.9635 31.7091 41.4252
1153 1 0.619834 35.4738 43.0997
4470 1 0.931286 35.3083 40.7945
3504 1 2.51547 33.5932 42.2523
3649 1 0.275406 32.4775 43.4979
5493 1 35.9297 34.0931 44.8043
365 1 5.42402 33.4664 42.7268
2603 1 2.99668 35.3592 43.8303
1726 1 5.49299 35.5727 40.7193
3951 1 6.94884 34.0194 40.5734
7576 1 7.44645 34.7032 44.0563
6367 1 6.51862 32.463 44.7611
4044 1 11.0306 35.4717 42.8006
3965 1 9.05878 32.4399 43.434
308 1 9.21677 34.6037 41.588
5549 1 10.045 34.28 44.3859
6513 1 12.7199 35.2894 41.0649
5004 1 12.8638 1.20611 43.9421
4051 1 14.5494 35.5827 44.7044
3913 1 10.1628 31.8031 45.3765
4129 1 11.3151 33.1095 42.858
4778 1 13.4856 33.578 44.224
1157 1 14.5296 -0.824109 42.2653
3082 1 13.9452 33.527 41.8688
4298 1 16.5981 34.7943 43.0302
3356 1 19.4874 35.6345 40.9447
3180 1 17.5162 33.0434 44.116
6612 1 20.46 33.4011 40.1005
4530 1 19.0872 34.94 43.5626
3161 1 20.9076 33.3928 42.3111
3092 1 20.6555 33.1909 45.2814
282 1 22.6733 32.9471 44.2105
612 1 21.625 35.0013 43.7445
6872 1 25.4468 32.4569 40.4227
5407 1 26.531 33.4218 42.2613
5652 1 23.3916 33.2506 41.6855
6875 1 24.8863 33.3379 44.2307
5492 1 24.9143 35.3069 42.9612
1162 1 30.9709 35.6693 41.6567
122 1 29.1953 33.0402 43.5792
1576 1 27.1275 31.6546 43.6921
4358 1 29.0523 -0.733195 43.5679
372 1 32.1312 33.0869 43.5607
1727 1 30.7462 33.4521 41.5753
3406 1 36.0471 34.0243 41.8545
2291 1 33.4859 34.7367 42.6179
3400 1 32.598 35.5613 39.5437
2863 1 35.1468 -0.380821 43.2809
6456 1 34.3286 32.6101 43.3181
949 1 33.3401 34.8005 44.7577
3497 1 0.595199 0.669122 47.0204
833 1 2.90658 1.50333 46.3252
6771 1 3.59987 4.27829 46.887
7023 1 1.7124 3.01783 47.8833
7121 1 1.53712 0.803256 49.1556
7824 1 5.36211 2.20381 47.3224
6700 1 3.9095 0.616672 48.4142
7580 1 7.2686 2.61297 45.964
1403 1 6.90358 0.500579 47.5748
597 1 5.71764 1.97291 49.8597
3481 1 9.27562 1.0414 46.5136
359 1 11.123 2.99871 47.0551
7646 1 11.5442 0.342165 46.987
2704 1 9.50338 -0.554121 48.8749
7025 1 8.83195 2.86124 47.6707
628 1 9.01255 3.45898 49.8107
874 1 13.5414 2.66402 46.2509
7426 1 12.9379 1.69378 48.4632
6929 1 15.3642 1.84677 48.3436
4227 1 15.2175 0.692083 50.4749
3272 1 13.7009 0.383846 46.4922
5183 1 13.7019 36.3134 48.9869
2437 1 15.7679 35.8118 47.0976
1803 1 17.2812 1.15181 49.6236
7880 1 16.7171 2.75057 46.6692
5973 1 17.6591 0.65085 46.9502
6767 1 15.7937 0.866163 45.582
2384 1 20.1219 2.47425 45.547
7320 1 18.7994 2.34687 47.935
1895 1 23.2573 1.84659 48.6247
7802 1 22.8058 1.94201 45.9337
6850 1 21.057 1.21072 47.5036
2681 1 19.3534 0.234342 48.8827
1753 1 23.2961 -0.235927 47.1849
1333 1 22.2791 0.00633456 49.6782
7496 1 26.9079 2.54932 45.9075
532 1 25.2795 1.05165 47.145
3963 1 27.9869 0.608265 47.7793
4228 1 25.3361 1.12118 49.8123
2713 1 28.0683 0.391677 45.2222
4400 1 30.027 35.9507 48.0329
3997 1 25.3097 -0.687666 45.3482
1423 1 31.9751 1.90133 48.3618
4288 1 28.8091 2.6223 47.4625
5026 1 29.9021 1.64384 49.3932
7163 1 29.8141 2.86706 45.1647
7892 1 30.307 0.78922 46.2394
5971 1 34.3348 1.4522 47.0283
2928 1 33.9181 0.764083 49.6146
4068 1 32.3728 4.15145 44.0791
3191 1 34.3805 4.20331 45.3315
6146 1 32.5173 1.87168 44.8859
3640 1 -0.660849 1.51713 49.2233
436 1 32.1411 3.25063 46.5605
4774 1 33.8426 3.03988 48.9287
3335 1 2.03447 3.44446 45.3026
7969 1 3.8345 5.42424 44.4247
3824 1 2.19189 5.37964 48.9992
5325 1 0.151388 4.91723 45.7359
3332 1 2.34538 6.58232 46.3132
7095 1 -0.199713 4.28831 48.8872
3724 1 6.58513 7.41734 45.9815
4776 1 8.84485 5.11004 46.8613
609 1 5.88327 5.07113 46.2095
5333 1 4.47364 6.23727 47.9884
6549 1 6.42494 3.7335 48.4017
1276 1 9.76135 3.30455 45.1759
841 1 7.0259 6.00214 48.1865
6135 1 10.6712 5.01374 48.5795
3888 1 9.99721 7.04287 45.5473
1345 1 8.76917 5.85829 50.2012
4859 1 9.26771 7.24763 47.9761
7402 1 11.4114 5.00263 45.9297
3813 1 13.0707 7.8933 45.7793
4617 1 11.6562 6.89209 47.2715
2372 1 12.949 4.22016 48.1147
7563 1 14.0203 6.50973 48.4838
4479 1 15.4766 4.56525 48.5088
80 1 16.8747 6.49816 48.2871
7887 1 17.0332 3.39517 49.2164
7584 1 16.2082 5.21562 46.2319
6862 1 17.8336 7.07075 45.9781
1826 1 19.3684 8.19465 43.2341
4517 1 19.2654 4.86357 46.1002
6864 1 20.6813 6.83787 45.5627
4153 1 21.2876 3.62751 47.3697
5509 1 22.3868 5.1647 46.039
1482 1 24.5267 5.9127 46.7886
3659 1 18.7927 4.81915 48.3981
2774 1 23.5535 5.26505 48.709
4390 1 24.0703 3.43085 47.3155
3991 1 26.4342 2.91418 48.166
2846 1 25.5918 4.4173 45.3514
3098 1 27.5954 4.66419 46.8347
4944 1 25.9371 5.02751 48.6795
3252 1 30.552 4.00783 48.7042
6688 1 28.3296 4.49413 44.5992
6702 1 29.8522 4.85305 46.6778
6059 1 32.4865 7.95633 46.234
679 1 32.4967 6.41725 48.8383
7719 1 30.4419 7.64165 46.921
546 1 32.4072 5.61031 46.4051
6849 1 34.6955 7.39732 48.0465
4634 1 33.0476 6.50713 44.0707
1966 1 34.5552 5.0331 47.5477
6219 1 0.357959 6.52258 47.6738
4933 1 0.390207 6.86008 44.7558
6054 1 -0.0976543 8.89852 46.9297
5315 1 2.37545 8.10255 48.3226
7953 1 3.42035 11.0549 46.2394
7173 1 2.09635 8.88824 46.0541
3010 1 6.85824 11.9731 43.6873
464 1 4.24485 7.7925 46.1855
5031 1 3.707 10.1107 44.0126
991 1 4.34231 10.2114 47.8681
5640 1 6.19425 9.92511 45.356
6542 1 4.53603 7.8698 49.6946
2866 1 2.49294 10.2137 49.3737
7403 1 10.5226 9.14653 44.4845
6457 1 8.56747 10.4905 43.9376
7500 1 8.30155 8.79655 45.9426
538 1 10.8073 9.06192 47.6597
3114 1 6.14676 8.4057 47.9325
475 1 6.9668 10.7574 47.6528
1952 1 10.6401 12.4757 48.2653
2618 1 9.09607 10.2561 48.7521
6868 1 15.3759 8.4301 48.855
3111 1 12.9212 11.4502 47.6308
6532 1 11.3485 9.94791 49.8785
2698 1 12.911 9.01903 48.2411
305 1 16.2549 11.6768 47.0715
1087 1 12.1237 9.95999 45.6849
7971 1 14.2773 11.7045 45.4986
3431 1 14.6132 9.70184 46.7951
1629 1 17.2796 9.36808 47.3818
3725 1 16.4739 10.2679 44.8601
3249 1 19.6764 10.4384 49.3687
7654 1 18.7652 9.4148 45.1417
7105 1 21.1122 9.02471 44.2558
5085 1 21.4941 6.64018 47.9159
3962 1 23.0271 7.73684 45.9493
4704 1 20.967 8.92806 46.4585
1334 1 21.7271 9.15701 48.7073
4399 1 21.1512 11.5549 47.7423
7026 1 28.2356 6.44578 47.9176
7566 1 23.4621 10.5466 48.2676
5168 1 24.9589 8.96044 47.0893
202 1 26.3282 6.96959 46.1401
1820 1 27.3798 10.8768 45.064
7666 1 26.4722 11.0832 47.5052
3021 1 23.6071 7.77983 48.7815
3662 1 29.8434 7.60047 49.3717
6390 1 28.7627 11.6596 46.9382
7322 1 29.4573 9.88212 45.4942
6953 1 27.9974 8.99175 46.9545
2515 1 31.9164 8.55349 48.63
6860 1 31.7845 10.1185 46.2061
1481 1 30.3297 9.99093 47.811
7966 1 31.5952 11.0581 44.0604
7474 1 34.8992 7.02796 45.7764
3572 1 33.1778 9.09718 44.1899
2768 1 35.6422 9.08898 44.7224
2397 1 34.2185 9.55996 46.7415
4557 1 32.4706 11.1803 48.5077
4297 1 34.4616 7.8 50.3354
4366 1 1.92498 12.7831 46.2665
2308 1 0.784469 14.393 44.8173
6395 1 1.04516 10.788 47.5027
1984 1 2.15228 15.0682 47.2991
7738 1 0.0879354 13.5506 47.4142
4469 1 2.43819 12.2304 48.4341
5247 1 0.613748 11.0937 45.2408
3966 1 6.9529 14.4888 46.4739
839 1 5.48151 12.1016 45.8444
2049 1 4.11045 14.1641 46.6503
6848 1 4.85465 12.6112 47.9806
3351 1 3.68543 14.703 49.0952
3562 1 6.65866 14.5224 48.5485
3168 1 9.84828 14.3655 46.0321
6216 1 9.63052 10.7229 46.2687
5487 1 7.70247 11.9846 45.7499
6317 1 6.29035 12.4371 49.8589
3579 1 8.58586 12.5338 47.8399
3820 1 12.0218 14.6074 47.8942
2764 1 12.3135 14.5114 45.0049
3338 1 12.6496 12.0257 49.8654
2615 1 11.6771 12.2937 45.895
6295 1 14.5256 12.9319 47.9359
7013 1 12.9135 16.6253 48.7145
1109 1 14.5227 14.0948 45.1596
1963 1 13.9132 14.0575 49.6247
3260 1 15.3298 15.3174 47.3944
5280 1 18.7951 13.5782 44.4391
5887 1 19.1157 10.5776 47.1384
769 1 15.5447 12.1432 43.4755
631 1 17.1924 15.0573 45.9154
4476 1 16.8016 13.0501 45.2185
3652 1 17.8124 15.3581 47.9653
5006 1 19.5481 12.8261 48.8378
7754 1 15.2157 16.8009 45.6242
6315 1 19.6046 14.9297 46.027
70 1 19.5147 12.3273 45.9855
2042 1 23.4497 12.6252 46.4862
5970 1 21.1572 11.3826 44.9197
6283 1 24.0291 14.2663 44.3997
4555 1 21.6357 13.8283 47.1007
5163 1 26.4704 13.5391 43.5987
671 1 25.246 11.8603 45.274
6357 1 25.7177 14.0111 46.1278
239 1 26.9686 16.0331 46.6852
6058 1 23.6156 15.2541 47.6475
5569 1 27.8237 13.5702 47.8824
2678 1 32.7407 13.3467 47.8781
4841 1 30.4084 13.2013 43.9955
462 1 28.2259 13.0477 45.0743
6633 1 30.9496 12.2501 46.7426
373 1 29.5804 14.882 46.2765
7421 1 31.4809 16.3702 46.3118
1169 1 29.9687 12.0164 49.0849
5028 1 30.413 14.0367 48.1008
4047 1 35.3849 11.5513 46.9682
5409 1 34.8261 15.7981 48.6429
3897 1 33.1337 12.2276 45.6201
1598 1 31.8348 14.2367 45.7543
6119 1 34.6272 14.2259 46.614
5114 1 1.33816 19.7562 45.3008
3629 1 0.712124 16.9368 44.6416
278 1 -0.0442356 19.7962 47.3528
536 1 1.97664 17.6159 46.4016
762 1 2.65575 16.9339 49.388
3309 1 2.27841 19.0512 48.1687
1400 1 3.46374 20.4612 46.2492
1749 1 -0.332689 15.7659 46.3058
1182 1 3.89608 16.7356 47.4984
4930 1 7.00804 18.7422 46.5283
126 1 4.89079 18.7596 47.7141
7253 1 6.44882 16.7959 47.8877
6761 1 5.0531 16.7367 49.837
5726 1 10.7919 18.4088 45.0299
3586 1 11.0893 16.5114 46.847
2445 1 11.6132 19.0586 48.1127
7011 1 9.41941 18.5555 46.9673
6222 1 8.27711 18.1859 49.0237
4693 1 13.3156 15.9322 46.6335
4544 1 12.9839 18.8141 46.0011
5424 1 15.315 19.7339 45.9248
6693 1 14.4085 18.2444 47.6394
4377 1 17.4538 19.6955 46.9965
3257 1 16.703 18.2874 44.1754
4454 1 18.5605 17.1347 46.5021
6036 1 16.6691 17.5535 47.6866
5889 1 18.6131 18.736 48.475
1429 1 19.6968 19.3406 45.8776
6935 1 20.3514 15.0235 48.7555
617 1 21.9035 15.906 46.1147
6458 1 22.988 17.8534 48.4593
5878 1 20.9991 18.8636 49.4422
6218 1 23.8872 15.9163 50.1527
1676 1 23.1821 18.1589 45.9012
3729 1 24.8938 16.259 45.7726
5983 1 26.9024 17.0688 50.0123
3425 1 24.6141 18.8762 44.3045
4874 1 25.3255 17.2097 48.0247
608 1 25.2282 19.0431 49.7064
1729 1 26.5116 18.4131 45.806
4765 1 28.8869 17.2007 45.4367
6703 1 28.4022 15.7254 48.4443
7967 1 32.753 18.4417 47.4295
2448 1 30.7576 19.2306 46.2833
7345 1 29.2815 17.7603 47.6719
3802 1 31.0823 19.6955 49.1305
4290 1 35.9149 18.3993 45.5232
7186 1 33.8559 16.4614 46.6825
6372 1 34.971 15.3753 44.475
1577 1 34.6832 19.5598 49.4564
1243 1 33.3842 17.6778 44.9203
280 1 34.3219 20.4799 46.6673
209 1 1.67451 23.4196 47.7254
7917 1 35.2532 22.8665 47.8777
6309 1 1.41217 21.7811 46.2256
7262 1 1.09711 21.4134 48.6846
315 1 3.45715 21.4276 48.2603
6202 1 3.82444 22.6886 46.0096
1017 1 5.46869 21.0442 47.2331
4939 1 6.09893 23.1156 47.3403
4069 1 8.27905 20.9199 46.8
954 1 5.0091 23.3525 49.4748
1824 1 6.78773 22.6908 45.2156
7506 1 5.02559 21.0328 49.9464
1181 1 13.1986 21.3103 46.3711
5097 1 10.781 20.4999 46.431
6631 1 7.10554 20.1078 48.7777
3993 1 11.2865 22.7153 46.7119
4050 1 8.75662 23.4345 47.5688
2909 1 12.589 21.1211 48.6145
1028 1 14.901 22.6873 45.2767
3894 1 15.2237 20.1361 48.3855
6530 1 13.6777 25.6983 50.0747
57 1 13.6062 23.2715 47.4299
2237 1 17.1019 23.7626 45.8486
1019 1 17.1469 20.4182 43.4742
160 1 15.8892 22.5937 47.6184
2555 1 17.0675 21.5116 45.4081
1797 1 17.8159 20.905 49.1071
303 1 20.3269 21.0406 48.4808
7893 1 18.8115 22.2883 46.5536
1238 1 21.9103 19.7965 46.9129
3811 1 24.7655 19.5552 47.3564
6538 1 20.5973 21.5146 45.9674
3600 1 22.8911 20.331 48.8393
5266 1 21.0453 23.4828 47.8262
4209 1 22.9849 22.3622 46.9906
1816 1 26.3072 20.9089 45.7013
2135 1 25.6228 22.4251 47.0466
3759 1 24.5385 21.7327 49.0241
63 1 27.2343 18.8059 48.1702
4938 1 28.3739 22.2745 46.7343
5356 1 23.8468 23.9319 48.6471
4611 1 28.5361 19.6995 45.768
3648 1 28.9531 20.6342 48.2268
6133 1 31.9651 20.9346 47.3016
7242 1 30.1762 21.8246 45.3797
1245 1 30.259 22.4279 48.7495
2046 1 27.9585 23.3424 48.8991
1198 1 35.4692 23.2279 45.2258
6392 1 33.6485 22.3114 44.1116
5099 1 0.0161901 23.2081 49.7729
4915 1 33.4669 21.5065 48.748
4380 1 32.6746 23.8044 48.3022
1989 1 -0.70874 25.1626 48.4793
7024 1 2.99877 24.9707 45.5069
4947 1 1.25752 27.6158 49.0063
3896 1 0.64013 25.4586 46.3086
5566 1 0.778092 27.7995 45.5377
7434 1 2.43878 26.5832 47.232
1422 1 35.999 27.5887 47.6392
3013 1 3.52243 27.5757 49.0478
150 1 4.80102 26.818 46.4505
4779 1 5.33843 24.5309 45.3803
6616 1 7.25142 27.1635 47.2415
7997 1 3.81521 24.7388 47.8038
3115 1 6.10921 25.3947 48.0341
2118 1 8.83358 26.8206 45.0691
6306 1 8.70491 26.5632 48.8152
379 1 7.73483 24.8577 46.2515
1497 1 11.8748 25.0386 47.5313
3826 1 10.6476 24.9853 45.4781
7996 1 10.5334 26.8824 47.0204
5977 1 10.0399 24.9908 48.7635
3980 1 11.4608 28.1665 51.3667
5180 1 12.0336 27.0366 49.3777
6361 1 15.1163 24.733 46.5794
3485 1 12.0302 26.8862 45.0033
920 1 15.6895 26.7856 48.4904
706 1 17.4995 25.1782 47.5813
2053 1 18.8738 27.4809 46.83
4619 1 18.619 26.9983 49.4579
4457 1 16.427 26.3252 45.7176
7425 1 18.0913 23.2672 48.9929
7731 1 21.3551 26.3163 46.3969
3081 1 19.5433 24.9899 46.5235
144 1 22.6581 28.099 46.3718
2034 1 20.0386 25.3049 48.9824
302 1 21.4929 24.2857 45.4838
3655 1 23.5782 23.8426 45.1955
6800 1 22.2658 26.4455 48.3757
5669 1 26.5875 23.4496 44.8598
6526 1 28.0187 24.9124 46.0761
5967 1 25.3369 25.2474 45.1312
6137 1 26.1368 24.984 47.6583
4716 1 23.8078 25.8403 46.9891
2539 1 28.1571 24.611 51.4487
7256 1 31.3789 24.0289 45.0577
3259 1 29.9666 24.1298 47.1274
119 1 28.9611 23.7975 44.4245
5989 1 32.2874 25.6716 46.5213
2288 1 28.8337 28.7839 47.6849
7670 1 29.8848 26.7649 47.299
5594 1 35.5836 25.4606 44.8579
3254 1 30.9227 27.2385 45.1771
3958 1 34.3823 25.0488 46.9829
2219 1 33.1011 22.9529 46.2205
5342 1 33.0733 26.2659 49.1759
1328 1 34.2879 27.2115 45.8454
5161 1 35.3222 26.8496 49.6641
5576 1 1.41419 29.8157 48.166
4543 1 0.0688902 32.2526 46.0343
5996 1 2.9924 30.9425 45.887
2796 1 1.98174 31.7574 50.0868
5998 1 2.84245 28.8498 46.6937
7423 1 6.17435 28.7579 45.495
5883 1 5.2566 31.2776 46.3957
2604 1 5.48827 28.9289 47.7528
5413 1 3.66818 30.7185 48.2081
4709 1 5.77555 31.7477 48.9215
3977 1 8.72089 28.6319 46.5486
7834 1 9.91782 28.8841 48.8433
7245 1 10.4105 29.41 45.8568
2446 1 7.15861 30.3082 47.2381
4440 1 9.11468 30.75 47.795
3576 1 10.414 31.7241 49.5132
623 1 7.52835 28.801 48.9861
6527 1 13.7409 31.9344 45.8785
6240 1 12.0406 29.9469 49.549
4522 1 12.1266 28.2544 47.2295
2955 1 13.7494 28.4108 48.9471
5645 1 13.9661 29.3279 46.2055
1259 1 13.7952 26.663 46.9612
6925 1 15.7696 28.4441 47.034
448 1 11.9844 30.5438 46.8941
2948 1 16.5026 29.085 49.382
3984 1 15.9652 30.9133 46.4028
852 1 17.1465 31.4461 48.6996
6520 1 18.091 29.467 47.0575
1890 1 16.9383 28.8283 44.8812
5734 1 20.1101 31.0353 49.0198
7351 1 24.5477 28.9639 46.9588
2436 1 22.3479 31.0712 45.3243
3996 1 20.0691 28.8125 45.2958
7332 1 20.3293 28.6875 48.0351
923 1 20.0316 30.8027 46.4631
4620 1 25.8915 32.0821 48.0491
5828 1 26.5099 28.0301 48.2326
1995 1 28.7923 28.3842 45.453
4449 1 23.9917 29.2938 44.4926
6288 1 26.3453 27.1589 45.8624
4922 1 24.6573 31.1332 46.0688
5740 1 30.8453 29.7911 45.5831
558 1 30.57 30.7705 47.7888
5011 1 30.8319 32.4087 45.847
3563 1 26.8165 29.6841 46.5488
1265 1 32.1336 28.098 47.2567
5348 1 30.897 31.902 50.2923
1227 1 28.7006 30.8309 45.5587
4837 1 32.4668 30.8549 43.8704
1188 1 35.0114 32.0295 47.4448
6129 1 34.5436 30.9536 44.6595
2208 1 33.9349 28.7534 48.7794
605 1 33.2502 28.9534 45.2957
775 1 33.2062 30.2595 47.1999
6769 1 36.1297 29.8128 47.0142
7495 1 -0.543036 29.4318 49.5296
2144 1 2.32735 35.2212 48.2604
779 1 1.7897 33.6907 45.1316
4443 1 1.21924 32.6225 48.1139
789 1 36.0887 32.3527 49.563
1341 1 3.16805 33.7358 50.0125
4551 1 0.350273 34.4096 47.152
439 1 0.492818 34.7098 49.5466
443 1 5.23642 34.5889 45.3853
6937 1 4.82581 35.3803 48.2493
5730 1 7.43637 35.1954 47.0021
4278 1 4.29945 32.7617 44.5662
5273 1 3.4335 35.6479 46.445
1185 1 5.97014 33.312 47.1097
6596 1 3.53849 33.2371 46.9774
7016 1 8.43907 32.8402 46.3346
123 1 9.75817 35.2268 46.3859
7036 1 10.1866 33.5021 47.878
4605 1 11.859 33.5036 45.9061
5660 1 13.171 32.5141 47.9976
3397 1 11.7406 34.9389 48.7998
1884 1 12.0271 35.7056 44.573
4141 1 13.5008 34.7458 46.6659
700 1 14.5279 30.606 48.1892
3330 1 15.7309 33.1828 47.7995
7249 1 17.8157 33.0098 46.7456
5729 1 15.6216 33.583 45.4094
7581 1 18.0604 35.077 48.3525
2536 1 17.2268 35.58 45.1095
7813 1 18.7212 33.038 49.2032
4880 1 20.1852 33.0692 47.5515
7170 1 22.5043 33.1308 46.5691
295 1 19.2322 34.5854 45.895
7894 1 21.212 35.2788 46.5163
1978 1 22.9799 34.9015 48.6504
6863 1 20.5049 35.2595 48.6349
7497 1 27.1606 32.8983 46.0212
6523 1 23.2134 34.9985 45.3327
2122 1 27.0477 35.414 46.5597
2055 1 27.1177 34.9173 44.1205
5040 1 24.9562 34.4508 47.2089
7158 1 30.972 35.2944 44.1561
5561 1 31.2445 34.6268 46.6284
4224 1 28.3456 31.663 47.7284
6070 1 29.0627 34.7818 45.6433
1408 1 30.2126 33.15 48.1119
6772 1 32.5888 0.108519 46.4543
3677 1 32.8654 35.6018 48.5766
1428 1 34.1864 33.8979 48.7289
361 1 35.6134 -0.383288 45.8332
7832 1 32.3407 32.4657 48.3253
5089 1 33.4189 32.6099 45.6105
5881 1 35.3078 36.2721 48.3898
6625 1 34.4726 34.7998 46.8196
790 1 0.273347 1.89637 51.9986
2317 1 2.37541 1.42836 52.6953
6363 1 1.49048 2.97247 50.302
1822 1 20.0356 8.27426 35.8859
3500 1 1.32389 35.8512 52.4907
599 1 3.46689 1.50106 50.3865
6066 1 3.98073 -0.629498 52.8479
5159 1 4.98583 36.4912 50.4797
7728 1 7.00477 35.2863 49.3353
2321 1 7.07415 1.26068 51.993
6690 1 4.30342 3.13419 52.8256
3893 1 6.61071 3.54938 51.0684
2560 1 35.2853 32.4957 53.7097
7957 1 11.424 3.74441 50.2425
4143 1 7.90551 1.44012 49.5659
5083 1 11.9945 2.73478 52.4838
6615 1 9.63533 2.09874 51.7441
2138 1 10.5338 1.67628 49.3685
6871 1 9.04145 0.414569 53.3358
554 1 14.0594 25.5689 52.599
4309 1 10.9354 0.245244 51.5441
1959 1 12.9745 0.920941 50.7387
4759 1 14.154 1.46553 52.6135
3354 1 14.3792 35.4819 51.939
5112 1 14.3009 4.55745 52.8498
2440 1 13.9273 3.19271 50.0903
5642 1 18.4642 20.2985 53.1621
3196 1 16.1114 -0.0165174 53.5878
2377 1 16.7364 1.76679 51.9099
7356 1 16.5416 4.02683 51.6781
4471 1 16.2758 2.85467 53.9923
237 1 20.6175 2.93795 52.3302
4553 1 17.1562 36.0392 51.6662
4800 1 18.92 3.39803 50.4384
4392 1 16.782 5.7525 53.0991
4455 1 21.8165 0.923652 51.86
7153 1 20.4755 1.88032 36.0129
5583 1 19.5137 0.154119 51.5988
1747 1 24.141 35.6906 50.7782
3513 1 23.4098 0.762675 54.0687
7088 1 26.7368 2.44998 52.41
2868 1 24.6907 1.05207 52.1212
3745 1 26.4895 35.8671 51.2551
3032 1 25.8169 -0.833758 48.7886
2305 1 27.6713 1.39082 50.0371
4534 1 22.9075 3.42263 50.795
4208 1 25.8397 -0.32915 53.5768
7565 1 15.8059 35.3921 49.7408
1917 1 18.4324 34.2772 52.588
2130 1 31.0922 1.15618 53.3488
6602 1 31.2962 -0.16177 50.0895
206 1 31.5498 35.4866 52.4276
6073 1 29.31 0.465063 51.3643
6312 1 32.2842 2.10543 50.979
7737 1 30.0628 3.53955 50.9766
3509 1 7.59705 13.9754 35.9491
5278 1 12.012 5.3621 53.0289
616 1 28.8634 2.5091 36.0008
4200 1 33.5605 0.402355 51.969
3322 1 34.7541 2.57448 51.4784
2765 1 33.3301 31.943 36.4266
468 1 36.1847 2.9666 46.717
7655 1 35.3092 6.58847 52.0804
6856 1 1.4197 5.86027 52.5038
6051 1 0.0372099 6.4581 50.3194
4705 1 0.0075993 4.17324 51.3787
6210 1 16.6368 31.5849 52.9934
7575 1 4.12467 3.79591 49.58
3583 1 6.09082 5.66222 50.3624
300 1 1.93392 3.56847 52.6361
6792 1 3.47731 5.84652 50.9233
3508 1 5.5141 5.426 52.557
7742 1 7.30315 7.17503 52.3515
5721 1 11.1974 7.3864 49.8598
317 1 8.15392 4.34694 52.2409
6632 1 10.0279 6.27295 52.5207
5813 1 9.17704 8.11883 50.8247
6474 1 15.7994 16.1777 53.8675
2782 1 29.9786 21.6442 52.9936
3585 1 11.4824 8.32732 52.1032
2695 1 15.1824 5.67732 50.7483
6122 1 12.8812 5.49332 50.5929
7746 1 14.0841 6.66207 52.623
5275 1 13.5124 8.13071 50.4467
226 1 19.3084 7.57066 47.5478
298 1 19.0824 5.06809 52.0713
5012 1 17.4253 5.97632 50.6977
4237 1 21.3851 5.27045 50.0858
4863 1 18.0905 7.79499 52.7003
3428 1 21.9674 7.29781 50.5655
472 1 21.0041 2.02844 49.7637
3733 1 28.5622 32.7243 50.1875
191 1 22.4673 5.45901 52.9691
4295 1 19.1943 34.9747 50.459
5417 1 22.9443 2.90467 53.1839
2954 1 24.5414 7.02799 53.381
6448 1 22.3586 8.22667 52.9694
1742 1 24.0121 5.47296 51.002
5485 1 26.687 6.53133 52.4358
2867 1 25.7559 3.44197 50.2585
1642 1 27.0693 6.4476 50.1153
4799 1 24.5197 4.4482 53.0749
7030 1 18.0221 16.8824 53.8634
5500 1 27.8659 4.30587 51.4191
627 1 28.1051 4.41441 49.013
7815 1 30.6717 5.86515 50.6993
4300 1 32.6001 4.40932 50.5535
7826 1 33.7399 4.82705 52.5452
514 1 34.6652 5.27074 50.0001
1360 1 32.7458 6.7162 51.3661
4379 1 31.4191 6.67798 53.2596
1663 1 31.6636 3.76544 52.5507
4917 1 35.2222 9.80332 51.4296
1004 1 2.20618 7.89905 50.8109
3327 1 0.326628 7.98676 52.7373
3433 1 0.266812 9.07438 49.8831
5572 1 13.4015 9.1123 53.3451
5248 1 6.64448 10.1097 49.7583
1673 1 4.28209 10.4511 51.3367
147 1 2.99274 9.94821 53.0208
1197 1 5.04621 8.07387 52.1101
1338 1 5.28747 10.1915 53.5262
4202 1 6.95374 7.85517 49.9171
1089 1 7.29692 9.5604 52.0178
5353 1 9.47756 10.3087 51.3536
7752 1 8.50649 12.5889 50.5071
4062 1 11.5456 10.3946 53.1564
4445 1 10.7783 12.6588 51.0743
1517 1 9.46004 9.00579 53.1891
4210 1 12.675 12.6853 52.86
768 1 16.076 8.09803 51.2679
858 1 14.9099 10.9538 49.2221
1894 1 13.5468 10.1803 51.2221
1320 1 15.8337 10.2966 51.4223
455 1 17.2717 10.9324 49.4035
2217 1 20.3914 7.05176 52.3407
2613 1 17.7007 8.43774 49.4004
6198 1 18.5498 12.0032 51.2808
3120 1 15.5899 8.28496 53.4805
2000 1 17.9973 9.75335 51.4788
6199 1 19.5093 7.16534 50.032
2125 1 20.6505 9.32453 51.0464
3675 1 24.408 9.81803 53.2647
4852 1 23.2796 9.80275 50.6338
4446 1 28.7981 2.28737 52.901
388 1 26.6687 8.76167 53.309
7489 1 26.535 8.16181 48.773
1910 1 25.3363 9.91598 49.5563
293 1 28.2278 10.2619 49.1813
6057 1 25.1316 8.02613 50.9837
1983 1 24.6796 12.6943 53.4851
5510 1 26.4656 10.6367 52.0152
854 1 29.0187 7.13425 51.8725
7005 1 27.3564 8.72341 50.851
699 1 30.8678 10.1284 50.2869
5323 1 31.0543 8.2706 51.3852
551 1 27.1994 30.0645 49.0511
7250 1 29.2362 9.20905 52.7665
1350 1 31.5072 9.59813 53.4517
1641 1 33.408 8.65846 52.6226
6639 1 33.0022 9.50247 50.5629
3740 1 14.1781 32.4908 52.0076
5077 1 33.9368 11.3637 52.7624
4849 1 34.9906 10.0497 48.8406
7727 1 27.4209 34.0486 52.2095
6076 1 7.23135 13.7583 52.9988
6459 1 0.935673 9.85804 51.9441
6452 1 0.0299593 11.7273 49.6265
696 1 2.17692 12.0848 51.4202
7174 1 1.1666 13.8661 52.8486
3415 1 1.33471 14.2467 49.6338
6613 1 1.50213 16.1259 51.2826
3495 1 4.09904 12.6852 50.2658
7172 1 4.34275 12.363 52.8163
3524 1 5.45164 14.6603 50.8735
5897 1 6.42844 11.9018 51.8969
2847 1 2.86851 14.1543 51.5298
7085 1 8.99054 14.561 51.521
2849 1 9.31592 12.0103 52.8876
5415 1 9.9755 14.5124 48.8048
6064 1 11.1607 14.2263 53.1988
3087 1 8.78227 16.1619 47.6442
2687 1 11.4374 15.1766 50.7108
5995 1 9.91646 16.7984 52.6776
1432 1 16.6747 13.2725 49.4879
5963 1 14.8765 12.2515 50.9107
4513 1 16.8782 12.4606 52.8113
6558 1 13.7928 14.9951 52.4084
6116 1 24.7027 1.77462 36.1176
3264 1 31.171 34.0924 50.2929
4537 1 17.0973 9.81983 53.4595
1732 1 15.9401 14.3914 51.5603
4484 1 18.435 14.2462 50.7329
683 1 20.4792 12.6564 52.7173
7986 1 20.7772 14.0588 50.7661
7988 1 18.7954 14.4228 53.1405
1972 1 19.4069 10.3847 53.0954
3838 1 21.6127 11.8243 50.2146
2061 1 24.5908 11.8599 51.0418
2140 1 22.7226 13.4099 52.0703
5435 1 22.1878 10.9604 52.9553
5421 1 22.5488 13.626 49.0606
1277 1 25.1956 12.9001 48.0204
4158 1 25.7505 14.2938 51.3469
4539 1 25.781 15.0445 48.8447
1078 1 14.135 17.7756 35.6062
3750 1 29.1409 10.763 51.2548
1184 1 31.5486 13.9541 50.1557
2463 1 26.7689 12.1985 49.7147
6614 1 29.2879 13.3095 51.0063
5913 1 27.3197 13.0168 51.921
58 1 33.0922 11.8587 50.549
4689 1 29.4312 12.9472 53.8889
1562 1 31.2504 12.6337 52.2252
4685 1 34.8556 13.0559 48.8252
1503 1 32.6093 14.4743 52.8318
7350 1 33.6656 14.4882 50.3924
7478 1 35.9434 14.8351 50.6888
6366 1 36.1695 12.4837 51.6814
5019 1 0.534129 16.7156 48.3119
3511 1 0.856938 18.9434 50.1555
5084 1 20.8814 33.4274 52.5623
7511 1 0.147348 18.2846 52.2415
611 1 2.83409 18.579 53.3814
5993 1 4.88932 15.1379 53.1167
7659 1 6.47461 18.1107 50.5395
145 1 3.66246 17.1377 51.6791
1073 1 3.86241 19.1035 49.9542
1280 1 7.12547 15.9373 51.6878
7520 1 5.08753 19.677 51.9228
4046 1 14.7386 10.9753 53.4546
4071 1 7.51378 19.8983 52.4473
6296 1 8.51178 18.1616 51.7225
4296 1 8.02157 15.7862 49.8934
7119 1 23.1047 33.5405 51.8
3667 1 10.3578 17.0408 49.4828
4056 1 9.88692 20.1214 49.2877
711 1 10.0532 19.675 52.9326
5169 1 14.2423 16.4078 50.625
534 1 16.3823 15.8237 49.7367
3999 1 12.2214 16.6816 52.418
2769 1 14.2506 17.9015 52.3446
6445 1 11.0058 18.5915 51.0837
5840 1 13.4307 18.6291 50.1258
4460 1 16.5699 18.0729 52.4574
3319 1 20.758 15.7609 52.6665
7671 1 17.4597 16.2178 51.5966
1837 1 19.3808 16.8041 50.264
853 1 16.178 18.2213 49.7135
5086 1 -0.542993 10.8053 53.7739
1359 1 18.0175 18.9002 50.7054
3973 1 21.5688 16.4239 50.2526
6313 1 29.4005 34.9019 51.8345
3101 1 21.3904 17.9768 52.0021
6543 1 19.2966 18.1085 52.451
2367 1 23.2915 18.2085 50.8279
2379 1 33.8824 34.2299 53.0207
7021 1 27.6363 14.6884 50.3262
7097 1 29.5383 16.2789 50.2176
2787 1 22.9725 16.2393 52.3167
5746 1 25.4067 16.82 51.9766
3760 1 27.9294 17.434 51.9425
4466 1 26.1206 21.6294 50.6699
1722 1 28.0661 19.3989 50.0915
4444 1 31.6691 16.0783 50.9778
2206 1 31.1943 17.4843 48.8292
2620 1 30.2797 14.8043 52.3612
5589 1 29.9909 18.8134 51.6386
720 1 32.7134 17.9665 51.903
5884 1 32.4116 15.6286 48.6776
7634 1 34.9651 17.9812 47.7456
2640 1 33.48 17.4675 49.8478
7641 1 36.1017 17.4032 50.2331
2307 1 35.0817 19.7392 52.1756
2929 1 21.6033 35.322 51.3155
6784 1 3.0932 21.7368 54.1042
5894 1 1.36644 20.4394 52.8057
6758 1 0.0566434 21.0301 50.8018
2214 1 1.19801 22.727 51.7777
446 1 16.2037 34.2729 53.0837
1744 1 2.79735 23.1662 49.8076
1980 1 2.71045 21.0374 50.8054
5253 1 35.8852 21.9835 52.9297
1418 1 3.98054 22.8921 51.6315
2302 1 6.69424 22.1333 51.4047
5505 1 7.20299 22.2563 49.1174
3638 1 1.98339 24.9137 51.3076
7573 1 8.95741 21.7852 50.9567
5748 1 10.5574 22.4625 49.2517
378 1 11.7294 20.655 50.7047
6223 1 10.4725 23.4754 51.41
5479 1 34.2778 16.1659 51.8802
5347 1 11.6014 21.3604 52.8237
369 1 8.09319 23.8929 51.9049
2124 1 25.0863 33.8526 49.4525
2778 1 13.4333 20.1887 51.8864
4928 1 14.3602 22.0686 49.7135
3360 1 15.5549 20.1959 50.9094
6400 1 15.9583 21.7582 52.5275
5591 1 13.1092 23.0094 51.6718
5021 1 15.5091 24.2278 51.4278
3414 1 25.2069 14.9846 53.6838
3003 1 15.191 24.4003 49.0456
6944 1 17.7724 22.208 51.3028
5826 1 19.3332 20.8186 50.6449
6236 1 27.7058 15.0657 53.0016
4781 1 19.2299 23.9796 50.8134
541 1 21.2256 33.3081 49.9451
2059 1 21.5955 23.5529 52.2248
1586 1 21.7437 20.2285 51.2236
6154 1 23.9367 20.6205 51.3891
3243 1 21.5463 22.4227 49.8575
2466 1 20.125 24.2268 53.6222
5916 1 20.2523 21.7655 53.0625
2226 1 25.9697 21.4272 53.2671
4468 1 24.2436 22.9959 51.3442
3506 1 26.2 19.004 52.0187
3664 1 27.638 22.6683 52.477
6943 1 26.8622 21.2063 48.5671
72 1 28.2316 20.0402 52.677
6714 1 28.8175 21.6918 50.7393
7407 1 29.6249 29.867 53.1159
5988 1 30.7374 21.0709 51.1643
3090 1 31.773 23.8565 52.9355
2860 1 33.197 21.7875 52.6358
6605 1 32.7631 20.1287 50.663
7876 1 34.9455 22.0365 50.8726
1916 1 32.5375 22.4826 50.5789
2076 1 0.404603 26.8008 51.0709
6531 1 2.69594 27.2905 51.1466
946 1 -0.430307 24.8762 51.3027
3728 1 11.3976 23.9866 35.5167
6297 1 1.35597 25.1686 49.3456
601 1 1.31416 26.2877 53.2842
1154 1 35.6878 29.2098 51.7751
1091 1 4.2512 25.5077 53.0778
309 1 5.91608 24.3514 51.46
3420 1 4.21659 25.5392 50.3763
1264 1 6.56306 26.2525 50.3466
1032 1 4.98024 27.5726 51.4147
6468 1 8.11071 24.5185 49.8864
1740 1 10.7487 25.7235 50.8262
7741 1 9.26694 25.5291 52.987
4070 1 8.94245 27.1168 51.0421
3343 1 7.15759 26.2841 52.5721
6461 1 -0.513501 32.0913 35.6322
6924 1 12.0731 23.9784 49.6025
2918 1 13.6965 27.8115 51.5694
2357 1 11.8877 24.8188 52.825
7889 1 15.8999 26.7233 50.9207
6619 1 2.79229 7.5399 53.4357
223 1 28.3133 35.1428 49.9467
6225 1 16.4422 26.6088 53.1608
2279 1 17.0143 24.9886 50.0706
7570 1 17.7819 27.8495 51.3775
394 1 18.1028 25.0321 52.3536
1005 1 18.8589 27.3898 53.759
6465 1 16.911 29.0806 53.1758
2777 1 20.9616 27.5361 49.7131
7965 1 22.1862 24.7491 50.1558
1163 1 20.2247 26.0132 51.8048
3085 1 21.9938 25.7359 53.2729
2157 1 22.7039 26.9746 51.1597
2871 1 21.1828 28.0586 52.813
3018 1 15.2495 20.0268 53.6777
1897 1 24.4893 25.7333 49.9121
3744 1 26.0483 23.915 50.1538
3715 1 23.7469 25.0452 52.1779
5427 1 25.9378 27.4471 52.4444
4552 1 26.9786 26.1347 50.5896
6226 1 25.8955 24.0989 52.7704
4766 1 25.173 34.172 53.0862
7117 1 30.3517 23.7744 50.6091
5254 1 30.956 25.3937 48.8936
1511 1 29.8757 25.7813 53.145
6235 1 28.2007 25.7657 48.6946
5422 1 29.5942 26.8572 50.4847
796 1 28.5727 27.7149 52.5707
7791 1 3.39186 5.11616 53.6617
4386 1 34.3038 24.0562 49.8585
3093 1 34.1991 26.1798 52.1849
7347 1 31.6833 25.8481 51.2612
2278 1 31.2543 27.8554 49.2027
5184 1 34.6731 23.9868 52.8274
2616 1 -0.344432 30.2126 53.7458
2859 1 2.58161 29.4069 50.2621
7035 1 -0.562152 31.7081 51.7308
2685 1 1.16939 28.7706 52.1736
7432 1 4.10283 31.6384 50.7663
7577 1 4.6731 31.6422 53.3452
7553 1 5.07306 29.6401 50.0045
1262 1 4.53197 29.5772 52.0431
6142 1 21.2535 19.8245 53.6486
5755 1 6.90167 29.1349 51.3295
4048 1 6.27563 31.8856 51.601
1746 1 6.58011 30.2381 53.7509
3403 1 11.0352 30.9611 53.7975
7508 1 8.50214 28.6249 52.9901
1582 1 8.23632 31.2852 52.7549
4920 1 9.59962 29.6454 51.1169
6303 1 32.1614 26.3618 53.4056
6709 1 8.22328 31.2202 50.3892
4359 1 11.9793 33.2087 52.8774
7664 1 14.2582 30.1942 50.6532
4066 1 12.2443 30.3897 51.6533
3349 1 15.2389 32.1892 50.0091
1002 1 14.8153 29.5976 52.6229
3094 1 12.211 32.7325 50.3423
1552 1 16.9254 33.3308 50.9077
2711 1 18.8496 29.4628 49.8865
6450 1 11.2915 26.9223 53.68
3758 1 17.3173 30.8594 51.068
5641 1 19.2627 29.5938 52.4778
3323 1 19.2722 31.968 51.332
6385 1 22.4429 35.1789 53.8748
1914 1 21.2915 29.7923 50.5557
5412 1 22.3741 30.8243 47.6604
7756 1 21.7721 31.6383 51.7483
6799 1 24.0138 31.2324 52.4461
2142 1 23.3786 29.2821 51.6568
438 1 33.9519 30.7278 53.5893
6947 1 35.0146 13.9072 52.896
1979 1 22.9689 28.5364 49.0598
2282 1 24.8301 30.12 48.9517
4394 1 25.7263 31.9584 50.306
3344 1 24.9923 27.8289 50.3431
759 1 22.9575 31.7221 49.5356
1892 1 26.0068 29.6911 51.2375
2526 1 28.1961 28.5006 50.2163
7650 1 27.9501 30.7541 51.4465
7346 1 13.8807 33.982 49.8944
6305 1 30.0986 32.7094 52.303
7321 1 29.9956 29.8888 49.7743
7040 1 31.037 28.5196 51.9652
6686 1 32.255 30.0611 49.3797
1919 1 2.34577 16.4685 53.8165
3102 1 31.6904 30.7793 52.1232
4213 1 33.6943 28.1393 50.8223
4533 1 33.292 28.322 53.106
4151 1 33.6995 30.3136 51.4097
1246 1 34.3706 30.9808 49.4109
5917 1 27.7333 33.8394 48.0656
1321 1 2.45635 -0.664583 50.3813
2355 1 2.49489 31.0461 52.4842
4282 1 1.77098 33.4875 51.815
3106 1 35.625 3.50087 53.4496
6477 1 4.25776 33.6403 52.3098
6386 1 5.51045 33.8104 50.269
6291 1 6.2991 35.0993 52.172
4757 1 7.65203 6.36398 35.5845
3358 1 7.8156 33.118 48.8012
1591 1 8.38849 -0.629042 51.1877
3722 1 7.96345 33.5981 51.3877
1580 1 5.84229 27.9209 53.8311
4064 1 8.06858 34.8068 53.7317
5895 1 9.99864 34.2429 50.319
1572 1 9.9845 35.0803 52.6943
6147 1 10.231 31.9697 51.7203
3972 1 12.3239 34.9365 50.9848
7503 1 0.0745426 24.22 54.0262
5038 1 12.3137 35.542 53.6729
4858 1 23.5998 27.2262 53.1541
2159 1 8.74381 21.786 53.6209
632 1 18.1423 22.905 53.7554
3355 1 12.4551 28.9995 53.4377
6684 1 0.224731 9.90499 35.6485
7822 1 26.1223 32.1245 52.6153
5481 1 29.5759 5.01963 53.2373
5565 1 20.2682 35.5326 53.251
5581 1 3.35748 27.3502 53.5552
5892 1 9.57047 32.9472 53.9631
781 1 35.1749 17.4742 53.8877
7254 1 6.01753 17.952 53.2316
2386 1 28.6304 10.9737 53.589
2549 1 2.4874 23.9853 53.4308
5955 1 9.4374 3.30641 53.7275
4549 1 27.0319 29.7683 53.3918
6718 1 35.6016 0.995881 53.6206
4045 1 13.5125 31.149 53.6894
3556 1 12.3567 18.7081 53.5592
6787 1 22.5703 0.49445 35.9723
7555 1 -0.695134 14.0821 35.9413
1244 1 6.66463 28.6899 35.756
350 1 12.4771 15.6032 35.7604
3789 1 25.9114 20.4297 35.6477
2690 1 32.5019 3.11601 35.9393
3660 1 35.2929 11.5681 35.5249
7827 1 2.90496 0.514166 54.5627
3891 1 36.0777 1.73494 57.1891
6941 1 2.16634 1.16941 56.59
626 1 4.6408 0.104074 56.4056
3105 1 0.343959 0.00328081 55.7913
1758 1 0.121383 4.36338 59.1439
5820 1 5.8321 1.9778 57.2875
2776 1 3.98264 3.20324 57.0548
542 1 4.6881 1.86927 54.7369
7199 1 34.575 35.2785 71.2828
6475 1 11.7521 -0.71021 56.0807
1973 1 9.62032 0.0457985 57.5089
3033 1 9.98248 2.13224 55.522
7166 1 7.85169 1.68298 57.6079
1750 1 11.507 1.64525 57.3643
5091 1 7.72644 1.39115 55.3275
6454 1 8.10964 3.85697 55.5185
7645 1 11.7385 3.38067 54.9849
5482 1 13.282 1.21342 55.6256
4953 1 13.805 1.13613 58.2356
4937 1 16.1577 1.39317 58.2717
1413 1 14.8025 36.0518 57.6543
5105 1 13.3267 3.19634 57.1188
2236 1 14.2987 3.34526 55.049
3001 1 19.1997 0.698384 56.048
1247 1 17.5604 2.69975 56.0655
4711 1 17.7791 3.56132 58.3805
146 1 15.6956 1.03481 55.782
1252 1 17.22 -0.755407 57.1962
7829 1 35.797 6.00958 54.2336
6869 1 16.7319 4.9132 55.2067
7749 1 21.1895 2.4984 57.2347
5106 1 22.6409 2.43036 55.5821
7018 1 22.4736 0.347185 56.2435
1808 1 23.115 0.931943 58.253
7028 1 24.7007 1.20843 56.3073
3573 1 26.9135 1.36977 57.3369
3340 1 27.2402 2.1068 54.9853
6471 1 27.1278 -0.244939 55.6507
5185 1 24.7591 35.9067 57.9671
7488 1 28.9752 0.814364 56.3474
6375 1 30.0672 3.29242 55.0911
4940 1 30.5267 3.36025 57.4928
397 1 20.2618 33.5363 55.0677
393 1 28.8302 2.36066 58.5789
5975 1 31.3444 1.09338 56.0738
3992 1 28.6166 -0.248736 58.3553
389 1 30.9268 0.892432 58.471
6320 1 34.5394 1.48962 55.7788
3988 1 35.0366 36.0126 55.4142
3088 1 -0.0242619 34.6312 57.066
3907 1 32.4113 3.16964 56.285
5178 1 33.3026 1.27523 57.8004
128 1 22.1983 32.2941 54.2865
525 1 -0.439177 3.4696 55.501
3828 1 2.09816 7.4946 55.754
4139 1 1.44497 3.63274 56.9735
7833 1 1.99607 5.77637 58.0007
1186 1 3.5545 23.5932 55.5147
6160 1 0.171112 5.5135 56.899
719 1 2.96528 3.64922 59.0369
289 1 5.11232 4.22626 55.0058
2400 1 3.76641 7.07098 57.3811
48 1 3.09196 5.16586 56.086
1118 1 7.02335 5.54038 54.4829
2300 1 6.71603 6.45786 56.5391
6707 1 6.46187 4.07295 57.548
7514 1 11.3762 0.965349 53.8483
7279 1 10.2014 5.4247 54.7902
1175 1 9.61898 3.2054 57.7998
4627 1 8.71704 5.68455 57.4677
384 1 11.6315 6.52285 58.2722
4796 1 11.2603 7.71599 54.4086
953 1 13.7116 5.66529 57.8587
3595 1 13.0014 5.4569 55.5365
7198 1 32.9455 35.4231 69.424
5034 1 15.5528 6.76107 57.1572
6706 1 11.0202 4.63416 56.7122
5908 1 18.8208 3.05665 54.1937
2531 1 15.5262 4.04858 57.2059
1507 1 17.58 5.69488 57.5058
3492 1 17.346 7.15611 54.9071
6387 1 33.6599 6.73506 54.0851
4687 1 20.5361 4.59455 58.8301
5649 1 19.3226 4.38064 56.5197
4042 1 23.5495 3.46851 57.7598
4691 1 20.1524 6.41792 56.4938
4719 1 21.9028 4.9413 56.8825
4955 1 21.8933 6.82214 58.1166
7886 1 23.7573 4.59459 55.1823
6401 1 32.4766 32.9991 71.2864
6795 1 25.5469 3.59217 56.3213
3434 1 24.4619 5.2325 58.624
5893 1 26.6251 5.50436 57.4324
156 1 28.7337 5.27636 58.8482
55 1 26.763 3.74677 59.0106
4134 1 12.7039 13.9813 55.0654
5470 1 24.1321 6.67751 57.0344
3424 1 29.7962 5.46678 56.4824
1977 1 30.4836 7.01901 58.3844
2478 1 27.9282 3.74966 56.3854
6314 1 31.8066 5.13218 54.6629
151 1 28.0387 6.99953 54.3052
3255 1 34.0126 4.64223 55.1185
1757 1 31.8845 6.76325 56.2268
3409 1 34.5035 3.6594 57.2696
3104 1 35.4774 7.29571 58.1519
7090 1 32.4281 4.94525 57.5693
6478 1 0.889234 9.39596 54.9113
3593 1 -0.116789 9.30151 59.2964
138 1 1.72027 10.8381 59.069
1981 1 2.68944 10.3358 56.9094
2239 1 1.90121 8.55015 58.04
1272 1 6.75476 8.56556 54.5601
1657 1 5.17566 9.06387 57.8468
5517 1 4.21291 8.77784 55.4819
7405 1 14.2222 34.8334 54.305
392 1 5.69341 10.7501 56.3625
4700 1 7.14773 9.17444 59.4879
2837 1 10.2248 7.44058 56.4094
7200 1 7.75139 8.19042 57.1672
4157 1 9.38428 9.39438 55.7391
1178 1 7.73965 10.6557 53.9911
5886 1 10.9202 9.13677 57.6552
2069 1 7.84833 10.5251 57.066
3589 1 12.9728 7.85056 56.3541
2314 1 14.308 9.67212 55.4057
3391 1 11.7133 9.7706 55.3819
708 1 12.8148 10.4065 57.4045
2148 1 5.57329 34.4521 54.4089
3723 1 25.4904 5.89409 55.1329
3199 1 20.2098 7.92072 54.6708
2293 1 14.4924 6.89346 54.9479
3012 1 18.2225 8.23234 57.1852
1958 1 18.9274 9.77286 55.3438
5201 1 16.5201 9.05888 55.8244
5193 1 18.287 12.8194 57.0826
2234 1 17.2473 10.6144 57.3773
2719 1 19.5396 6.97161 58.8238
2789 1 20.8389 8.46791 57.0862
4860 1 22.7766 11.1409 57.3195
6389 1 22.6091 6.79711 55.2415
7578 1 20.5415 12.99 57.7045
43 1 23.7715 11.2433 54.8813
2922 1 21.7968 9.631 55.1568
5902 1 26.3846 8.26048 55.6458
2705 1 23.0361 8.77695 57.1658
1021 1 27.8523 11.7065 56.4996
3571 1 25.3336 10.1087 56.34
1434 1 25.6762 8.05816 58.1001
478 1 26.3158 10.8797 54.166
6541 1 28.5479 7.80659 56.8938
7437 1 27.7375 9.74732 57.7326
84 1 28.1657 9.42273 55.563
6292 1 30.0214 11.5247 57.1751
1444 1 30.9224 8.97087 57.1512
1571 1 22.6321 29.9564 54.4164
3651 1 32.2861 10.9041 56.4812
45 1 -0.181384 8.38177 56.6079
837 1 34.4185 6.09953 56.7353
3336 1 32.6336 8.77019 55.1444
4626 1 34.2212 9.19606 57.1268
5100 1 35.1157 8.6978 54.6638
5015 1 1.53154 11.8583 53.8199
701 1 1.76424 12.4051 56.1722
3172 1 3.05522 13.9367 54.3985
6065 1 -0.274187 13.1331 54.6037
1570 1 4.4516 12.2008 57.6114
6302 1 3.03813 14.4505 56.6927
3350 1 0.0581042 10.7433 56.7418
2931 1 3.83986 11.5241 55.1049
2462 1 6.35538 11.1916 59.0506
7492 1 6.28441 12.0692 54.6543
1174 1 4.98467 13.455 55.6046
1030 1 6.98611 15.3465 54.9301
5504 1 5.83883 14.8979 57.432
5410 1 6.94345 12.6836 57.2094
6644 1 9.16055 14.619 54.2648
1899 1 8.61477 12.4842 55.5606
3974 1 10.7684 12.2213 54.6557
3242 1 10.8413 13.376 56.9801
1431 1 8.68127 14.9697 56.4206
5992 1 10.5539 11.2838 56.9994
2544 1 34.62 33.5773 69.7846
939 1 12.9359 11.6051 55.2079
4310 1 12.9985 13.0173 57.8283
864 1 14.8829 14.8062 55.3462
3331 1 14.9808 11.4882 57.0118
2225 1 18.7218 12.1676 54.2218
4958 1 17.7658 14.8436 54.9768
5196 1 16.2704 13.5392 56.6439
152 1 16.5132 11.4359 55.0879
4785 1 18.7856 15.0721 57.1445
5901 1 19.9389 16.1626 54.8811
5259 1 19.9304 13.9971 55.4717
6149 1 20.7618 11.6399 55.8995
1988 1 22.8705 13.4346 57.2926
5674 1 21.4539 15.1934 56.5908
4717 1 22.333 13.0294 54.8236
1840 1 25.1001 12.2904 56.6466
65 1 24.2455 14.3794 55.551
5270 1 6.44967 25.5361 54.6866
6464 1 26.394 13.9791 57.8101
7180 1 28.8921 13.5644 56.1464
549 1 24.1165 15.3055 57.9848
5102 1 25.9096 15.7748 56.217
3983 1 30.3786 10.6139 55.1892
3412 1 1.99366 19.8596 55.1166
2316 1 31.4932 13.4458 56.4287
3970 1 32.2986 12.0689 54.1057
1430 1 29.4778 13.812 58.3164
4784 1 11.6892 33.1883 55.1454
1279 1 34.2679 10.7191 54.9975
2289 1 35.0142 12.4424 56.4419
7643 1 33.1446 14.8372 57.0726
4061 1 33.9184 13.7278 54.842
2772 1 0.997891 14.9699 55.2551
3250 1 0.472259 17.4674 54.708
233 1 33.1471 0.046974 53.9759
6213 1 0.900708 19.0509 57.208
5516 1 35.3148 19.2811 59.0034
2641 1 2.39237 16.9606 56.148
1902 1 4.47367 18.7404 54.8682
3253 1 4.80489 16.6017 55.2455
2957 1 7.35193 17.5213 57.0569
4628 1 4.90981 17.7005 57.1735
4052 1 6.15982 19.5594 56.1874
7169 1 14.2618 27.4457 54.2273
629 1 10.7994 15.922 55.2126
4456 1 10.4908 18.1906 54.7111
2281 1 9.9031 17.0627 57.0064
6377 1 11.23 17.1331 58.5009
7507 1 8.7477 17.1725 59.0195
4311 1 19.1236 5.49734 54.2704
56 1 13.2437 16.1606 54.4402
7816 1 14.9691 16.8581 56.6298
1667 1 12.0152 15.5867 56.9957
5888 1 12.7551 18.3487 56.1923
7739 1 8.7662 24.1578 54.7063
5101 1 17.4135 17.0474 56.198
4147 1 17.0922 19.061 54.8102
4465 1 18.1067 19.0786 57.2734
5033 1 20.4618 19.5296 57.488
4225 1 18.6361 16.9261 59.3257
871 1 30.4908 17.4515 53.6442
1113 1 29.3351 23.544 54.0572
6393 1 24.065 16.8444 55.1218
6635 1 19.5539 17.1855 57.3522
78 1 21.7995 17.5047 54.6405
1112 1 22.237 17.2202 57.4008
2540 1 8.2307 27.1947 54.962
4856 1 22.8203 19.3956 55.9267
704 1 15.0532 32.8113 54.2713
6682 1 26.4822 18.2341 56.0047
3193 1 24.3869 17.7724 57.5679
5279 1 26.4975 16.6834 58.6192
1519 1 26.4964 13.2775 55.0559
4710 1 1.12703 32.6066 53.8491
5809 1 29.0379 18.1037 58.8015
6383 1 29.4815 17.8845 56.4096
2151 1 28.3483 16.2335 57.2745
4558 1 30.7636 15.7962 56.8901
3995 1 31.7752 17.9021 56.4304
5575 1 31.0833 14.4933 54.531
46 1 35.4106 15.389 55.1049
3190 1 33.8541 16.8265 55.7939
7192 1 29.4076 33.1246 67.1993
1093 1 24.0753 8.35444 55.2399
7112 1 1.66188 20.564 58.9486
6552 1 3.7874 22.2368 59.1037
3727 1 2.32783 21.7015 56.8489
7840 1 -0.520627 21.3517 57.2451
5733 1 0.746306 21.8002 54.71
5750 1 3.81164 19.6834 56.8274
5440 1 5.95517 24.4984 56.8947
3831 1 7.08335 22.6665 55.1681
4447 1 6.02389 23.0141 58.611
3188 1 5.04174 21.9475 56.1038
4133 1 5.48105 20.7465 54.1109
7974 1 7.5737 21.3884 57.6842
1653 1 8.37058 19.847 54.618
872 1 9.13344 19.5886 57.1609
3112 1 9.44674 22.1575 55.9981
1483 1 10.8497 22.2988 58.5782
2553 1 11.7866 22.5667 56.1431
4612 1 10.8149 20.3344 55.1908
870 1 12.719 23.7834 57.8952
5667 1 10.3491 24.1414 56.8369
49 1 5.47818 23.2363 53.6445
4697 1 15.3992 19.4568 56.5396
1110 1 11.4796 19.9166 57.4978
1893 1 14.1327 23.8696 56.144
292 1 13.0631 20.8829 54.3062
1183 1 13.3381 20.6724 56.8056
1597 1 15.3589 21.7653 55.2844
5124 1 18.3022 20.8279 55.4413
5593 1 19.186 21.459 57.7134
4316 1 16.8315 21.0353 57.8461
2465 1 19.2494 22.7573 56.0081
5405 1 14.5963 22.7168 58.3189
6158 1 21.604 23.114 54.8882
2443 1 20.7055 21.0415 55.6406
3398 1 1.33079 5.45187 54.6805
3417 1 20.2629 23.0942 58.7219
6232 1 22.4587 22.7236 57.153
221 1 24.351 20.297 57.4258
873 1 28.3304 19.5649 56.9394
6611 1 24.1008 21.8891 55.9956
381 1 26.7396 21.2562 57.2349
7801 1 25.2503 19.8008 54.8962
2706 1 27.7299 21.4417 55.0315
5245 1 24.8577 22.5538 58.3269
4480 1 28.2741 18.6737 54.3983
7427 1 29.0152 34.841 69.1962
3419 1 32.3723 20.4352 56.2545
6794 1 30.39 20.0563 54.8436
3342 1 28.6697 21.2998 58.5224
4698 1 31.3765 22.6167 54.7642
1261 1 29.6743 21.9438 56.7702
4223 1 34.7934 19.4674 56.7046
1587 1 32.8072 19.2162 58.6636
5430 1 33.3723 18.8994 54.4255
3278 1 19.6002 18.816 55.2527
400 1 33.7059 21.5849 54.9083
3091 1 33.3886 23.2207 56.9945
1752 1 31.1836 23.8364 57.4634
2599 1 3.37759 24.2639 57.6449
7280 1 0.121815 27.3344 58.2019
3198 1 1.21566 22.9721 58.6959
1668 1 0.931587 25.2024 57.882
3833 1 1.10721 23.4329 56.3698
690 1 -0.442873 25.2943 56.2936
1326 1 8.70841 7.00667 54.5267
6876 1 14.4933 17.8858 54.5781
6462 1 5.21817 24.5345 59.9213
3502 1 2.53585 2.91723 54.9351
4448 1 4.94409 26.4744 57.7538
3436 1 5.04671 27.7682 55.8931
7595 1 7.90272 23.7142 57.1604
3486 1 3.83644 25.8328 55.6632
6155 1 9.33221 27.2652 58.7313
2548 1 9.56038 24.4908 58.8687
2141 1 10.2099 26.2569 56.0241
876 1 12.1759 25.0806 55.4047
7652 1 11.4035 26.015 57.9859
1504 1 13.5413 25.5362 59.6395
2078 1 16.0667 25.5089 56.2922
5172 1 12.2236 27.3902 56.029
215 1 13.9301 26.093 57.4439
1412 1 16.7731 23.2449 56.4851
7820 1 16.5321 27.1981 57.5872
6444 1 18.4242 25.3483 57.044
7099 1 20.3466 27.2854 57.781
2718 1 17.9661 25.2787 54.5899
2052 1 20.2697 28.721 59.5936
5360 1 20.5271 26.3479 54.9453
2155 1 22.5527 25.0571 55.4905
1027 1 20.7727 24.7577 57.0741
2617 1 22.7571 24.8744 58.048
2296 1 26.3575 17.1894 53.8791
2793 1 24.7899 26.5226 57.0212
1273 1 26.2949 23.6424 54.7101
6852 1 27.51 25.6413 53.6436
855 1 24.7749 25.7338 54.8214
1971 1 26.9221 28.2659 56.9206
7184 1 24.774 24.2425 56.4032
137 1 26.7903 25.8403 56.1103
2235 1 28.7055 24.4535 56.0448
5882 1 30.7682 25.3576 55.2851
2561 1 30.8296 26.8953 57.1146
7080 1 34.9596 25.6943 54.4579
2480 1 33.1848 24.642 55.2327
3416 1 33.2874 25.5742 57.3517
6139 1 34.7214 27.3605 56.8056
5899 1 32.8877 27.228 55.5688
3985 1 35.2797 23.1674 55.3575
4956 1 35.39 23.5714 57.8854
1274 1 1.64927 25.8655 55.4746
2541 1 2.69723 28.001 55.9664
5257 1 1.78694 29.4944 57.9228
7510 1 1.47701 29.1224 54.5425
5590 1 3.45577 30.5345 56.3552
5354 1 0.00210411 28.0979 55.9274
7837 1 5.84001 30.2902 57.6195
922 1 1.06641 30.9749 56.413
7979 1 4.45356 29.4752 54.2998
5741 1 6.42013 28.0483 57.8259
2455 1 7.08908 29.1663 55.7521
3914 1 29.1169 33.1032 71.1894
5584 1 29.227 15.5495 54.7973
6080 1 7.64699 26.0716 57.1316
459 1 8.6739 30.7636 55.1283
4639 1 10.3291 28.8806 54.6462
5665 1 11.4875 28.7869 57.8086
5823 1 12.6517 30.2208 59.2306
5835 1 9.15205 29.033 57.0079
3197 1 13.5204 27.9644 58.557
6936 1 15.1497 30.0736 54.9944
4699 1 12.5803 29.7942 55.6275
6780 1 14.6257 28.3211 56.5046
376 1 16.6105 27.4985 55.0935
2558 1 14.2908 30.2562 57.7511
2075 1 20.1136 29.2885 54.6915
4383 1 19.4394 29.5189 57.329
2784 1 18.6252 27.6019 56.1453
6610 1 16.9416 29.5257 57.3008
4850 1 18.2491 27.5254 58.9306
697 1 17.6069 33.0411 54.7395
7336 1 15.7039 31.868 56.5076
5807 1 22.2893 27.5914 55.1805
1007 1 22.6123 27.3327 57.875
5810 1 21.7901 29.3153 57.1135
5005 1 23.0212 31.3556 56.4596
1829 1 24.9767 2.3713 54.2408
4536 1 26.3161 28.0577 54.8459
5013 1 24.3331 28.6864 56.1526
4121 1 26.2038 31.8136 57.6866
1991 1 25.7935 30.4864 55.6143
7014 1 28.3664 29.4346 55.1828
3187 1 28.8236 27.0977 55.911
370 1 30.6792 27.751 54.4269
7888 1 30.191 31.2416 54.6966
3352 1 30.9499 29.1626 56.5322
7579 1 32.0621 29.7093 54.6527
461 1 33.0073 29.8541 57.3059
2058 1 35.4857 29.856 57.7648
6926 1 34.3237 28.8879 55.1716
2301 1 22.3527 14.9711 54.1844
3165 1 32.8135 32.029 55.7874
157 1 2.10949 33.1964 56.1714
936 1 2.21722 35.5653 56.4981
7093 1 2.48194 34.119 58.5429
5111 1 35.8557 32.4485 57.7244
5656 1 4.49303 34.3177 56.2903
2872 1 3.8619 32.4124 55.1095
1167 1 36.0954 19.7925 54.6817
217 1 7.3511 35.459 55.979
5914 1 5.85616 31.3113 55.5572
6691 1 6.00721 31.8083 59.4853
4773 1 5.87582 33.4791 57.7639
7519 1 7.60937 32.8044 55.0508
5985 1 10.7064 30.9996 56.682
2213 1 7.61359 31.6256 57.3066
1173 1 8.11381 34.3966 57.8378
6940 1 9.73094 34.4771 55.5389
6696 1 9.71981 32.5898 58.2049
2875 1 15.9338 34.7922 55.6187
2474 1 11.0903 34.1258 57.411
1660 1 13.2064 34.4737 56.7176
4391 1 30.2354 -0.549244 54.5677
7968 1 13.3278 32.0872 55.9015
1499 1 17.7429 30.2316 55.2494
1190 1 8.38038 17.2911 54.811
6712 1 18.8045 31.701 56.7102
602 1 18.1607 35.2114 54.9154
1025 1 20.4692 35.4345 56.224
2238 1 17.8272 33.6817 57.1154
692 1 21.0431 33.5021 57.4875
2547 1 23.9724 33.1667 58.0667
2223 1 24.4257 32.9169 55.0922
3346 1 20.8314 31.4806 56.0743
3564 1 24.5482 35.4616 55.042
6069 1 22.5121 34.2059 55.9727
4862 1 20.6207 0.344226 58.5292
6394 1 22.4215 35.1628 58.0026
6620 1 21.2069 4.3092 54.9025
7274 1 25.4788 33.9358 56.6553
3015 1 27.0941 34.0912 54.5629
1906 1 27.302 34.6476 58.0041
7430 1 31.0411 35.2493 56.5614
4783 1 10.6263 23.3322 53.9912
6446 1 5.02133 6.91047 54.3466
5662 1 28.1054 32.6107 56.4174
4624 1 28.7429 34.8837 56.2686
688 1 30.6213 33.2147 55.8661
2632 1 32.2036 34.7944 54.5008
5110 1 33.2005 35.8373 56.4727
2636 1 34.6518 33.5909 55.7008
4701 1 35.3538 31.2837 55.5959
4464 1 32.2102 34.0368 57.9025
6230 1 0.221584 34.7451 54.4873
5838 1 33.5758 31.8016 58.3663
3647 1 34.5392 34.186 58.2373
5119 1 5.05846 2.27423 61.7943
2785 1 2.47302 0.990714 60.3535
3746 1 0.418172 2.01363 58.9919
7998 1 2.44168 1.03695 62.4948
2937 1 2.50204 35.2289 60.5469
7571 1 0.699085 3.07006 61.157
5658 1 0.0954323 -0.223188 60.699
3646 1 6.31462 -0.41032 58.0963
4960 1 4.71242 0.0729512 60.3121
641 1 6.71685 0.974332 62.8736
2779 1 7.21314 0.943076 60.2459
5116 1 8.76654 1.0375 61.9418
3743 1 9.62243 1.52717 59.3433
7275 1 11.6417 1.80102 62.7054
3024 1 10.7822 0.197451 61.1301
3268 1 9.42936 3.07693 63.294
7740 1 10.0662 3.29149 60.7989
6946 1 8.88503 36.0527 59.999
2943 1 12.1796 2.08918 59.9266
530 1 13.0939 3.22023 61.6955
3429 1 14.6175 2.81839 59.811
7676 1 14.7776 0.108918 60.2032
4869 1 11.8044 4.10362 58.9587
3920 1 12.7377 -0.799815 60.2813
7648 1 19.7082 2.90974 60.2522
5646 1 15.5805 2.75428 61.8607
5192 1 18.447 1.70246 62.2339
66 1 16.9416 1.82644 60.3963
7839 1 18.5648 -0.524885 63.7558
4160 1 16.367 0.109136 62.2941
942 1 18.5219 1.24875 58.137
5670 1 19.2307 0.224375 60.5709
319 1 22.4388 1.15411 60.5726
7902 1 20.9241 1.57621 62.3217
7277 1 24.5463 0.745743 60.8301
1908 1 19.6975 3.8542 62.3932
2210 1 21.6912 3.68905 61.398
4644 1 25.0702 1.96757 58.611
3274 1 25.3124 2.08614 62.5244
4875 1 26.4956 -0.299514 59.5812
6548 1 27.0691 1.94678 60.4216
2229 1 26.9386 0.191371 61.9168
3006 1 29.3141 0.845363 60.2637
5743 1 31.4802 0.317856 60.8095
7175 1 30.8644 2.66088 61.0657
2783 1 29.1467 2.62867 62.7149
3280 1 32.4791 3.25648 58.9627
6148 1 29.5236 35.5648 61.4694
717 1 34.749 3.09084 59.6101
6634 1 35.3584 -0.164164 58.4349
2476 1 33.6743 0.87054 60.2054
7115 1 35.6715 1.72515 61.5193
1741 1 33.1915 2.09554 62.1526
4794 1 34.8752 2.01189 63.9753
3014 1 3.27201 3.30235 61.1184
2951 1 2.15968 4.75776 62.8427
945 1 2.01781 6.94798 61.8162
1512 1 -0.0251687 6.14618 62.305
3418 1 2.75133 5.47317 60.3151
3987 1 3.9237 1.40894 58.5012
4140 1 5.07438 3.22179 59.2762
2464 1 7.91186 3.38784 59.558
1831 1 4.48864 5.25985 58.6663
5350 1 5.1771 5.10929 60.6738
6858 1 8.49982 5.19146 61.8439
624 1 9.46895 5.33466 63.8815
5194 1 9.81437 5.25751 59.5178
1568 1 7.25448 5.59337 59.5228
1176 1 11.2937 5.04184 61.8195
4926 1 8.93465 7.52321 63.1896
4532 1 11.6512 7.64062 62.955
2065 1 11.3773 6.85017 60.4586
4125 1 13.6486 5.31131 60.2737
2637 1 13.1693 5.47942 63.2604
3971 1 15.6136 5.24024 61.85
5825 1 13.0258 8.30626 59.617
1589 1 13.362 7.42837 61.7062
4073 1 17.6625 4.25936 61.1765
1098 1 15.3467 7.30918 60.0211
4238 1 15.9017 4.62784 59.4538
4232 1 18.3129 6.00289 62.5882
2712 1 19.7134 5.67106 60.7371
3979 1 19.7493 7.74989 62.3889
5577 1 22.2928 3.25951 59.4443
4867 1 22.3616 5.48557 60.1715
7992 1 21.5442 5.61337 62.9339
1578 1 23.6187 4.14982 62.8438
286 1 22.5461 7.71636 62.592
4946 1 24.5111 3.45262 60.3006
7669 1 26.3897 6.11761 59.7957
1102 1 28.2376 7.89681 59.2983
2460 1 26.5252 4.22851 61.7507
5260 1 24.4892 6.01138 61.664
4613 1 28.2301 6.43798 61.556
3037 1 28.5456 3.7686 60.5717
7509 1 32.5969 4.38411 61.3823
1502 1 30.9781 5.21351 59.745
4598 1 30.1064 5.08034 61.8502
3806 1 30.3015 7.66692 61.0862
6227 1 29.294 6.73767 64.2478
213 1 32.5392 6.65065 61.7202
1267 1 35.1602 4.11172 62.2527
2936 1 33.381 5.40457 59.4931
1583 1 32.8268 7.52158 58.2477
4954 1 35.1479 5.58603 60.2614
7758 1 34.5565 7.66607 61.7019
7675 1 3.43688 8.18916 59.8754
7354 1 0.702625 11.631 61.61
3737 1 0.297623 8.87826 61.6024
7818 1 0.403537 6.96487 59.8315
3567 1 5.68141 7.2043 59.3598
7109 1 5.07222 9.30556 60.9272
7984 1 4.34469 7.19742 61.6276
1024 1 7.26849 7.36689 60.9993
1256 1 6.6388 11.8889 63.4013
307 1 7.75857 11.8446 60.6545
1347 1 4.60143 6.06666 63.7753
5896 1 10.1166 8.61869 61.1826
3040 1 7.87608 9.91 61.7609
6237 1 9.27656 7.61787 58.8292
1913 1 13.2123 13.1856 61.0963
5177 1 9.23216 10.1102 59.4265
2299 1 10.1747 10.1123 63.0857
1500 1 13.915 10.4257 59.6566
2458 1 14.9758 9.076 57.797
2621 1 15.1938 9.66142 61.413
7252 1 14.3119 11.6786 62.143
621 1 12.2617 9.78801 61.5765
4395 1 16.4337 11.0142 59.8806
5573 1 15.8753 7.77891 62.2763
6857 1 16.9628 8.80938 59.0603
6866 1 17.7195 8.42374 61.1252
7348 1 17.5101 6.51059 59.9547
5359 1 19.6297 10.3771 57.7503
7760 1 19.5613 9.14328 59.5639
7596 1 16.7778 10.9138 62.356
3183 1 21.5324 9.67407 61.7423
4236 1 24.6785 9.30742 61.1764
2780 1 21.1952 7.61007 60.0259
2694 1 21.6486 9.9483 59.2098
6956 1 20.8076 11.7645 60.5396
7415 1 24.4343 9.96008 58.7884
3998 1 23.1757 11.3249 62.4832
6286 1 26.7559 10.1533 62.3397
5432 1 26.8545 9.68049 59.8164
1915 1 23.7159 7.7657 59.7231
1986 1 25.4115 11.5537 60.9332
2550 1 24.7446 9.20685 63.5454
467 1 26.3457 7.68735 61.8955
7600 1 28.6042 11.675 59.4931
5987 1 30.3115 9.37637 59.3452
6480 1 30.4483 11.2191 61.1933
377 1 28.3536 9.21062 61.2022
1322 1 32.1964 9.05191 61.157
6708 1 32.5349 10.1345 58.6503
6796 1 33.2623 11.4661 60.5098
4941 1 34.1977 8.86681 59.6843
2792 1 34.9299 10.9033 58.9534
2051 1 35.102 10.4692 61.7761
1492 1 0.0496042 13.0096 57.896
7344 1 3.89452 10.5819 59.4737
3653 1 2.30505 10.1449 61.7654
7597 1 -0.222073 15.2434 59.3725
523 1 2.05669 13.9323 58.8481
75 1 0.452414 14.0944 61.8361
4853 1 2.45206 12.2748 63.1684
4630 1 2.88869 12.9572 60.7547
465 1 5.19438 13.7163 59.4425
3753 1 9.04332 12.4462 58.5231
3809 1 5.18459 11.8999 60.8014
3592 1 4.74716 15.5464 61.1276
5195 1 9.83798 14.8084 58.6231
450 1 7.07089 13.8196 61.362
6380 1 10.3407 11.4773 61.0195
5562 1 8.42901 14.2981 63.2959
238 1 9.46073 14.057 60.9751
5438 1 11.2332 13.1421 59.6315
7677 1 8.93259 12.0264 62.7362
3496 1 11.3143 13.4181 62.4723
5199 1 11.5734 10.9645 59.062
1834 1 12.7868 15.4161 62.3604
480 1 14.7517 14.8751 60.7798
7191 1 14.8695 12.9083 59.095
693 1 15.4309 16.9335 59.8696
3263 1 16.275 12.9151 61.0605
2773 1 19.5975 14.0998 59.6451
5655 1 19.0756 13.131 61.7716
7483 1 18.5006 11.9185 59.3199
4554 1 17.2526 13.8232 58.899
5756 1 20.3547 15.944 61.032
4076 1 17.425 14.2291 63.7927
1196 1 23.0604 11.3075 60.0036
5423 1 21.5821 13.0725 62.1352
3247 1 22.1614 13.8739 59.9665
5727 1 20.7725 15.7509 58.7003
5343 1 21.2347 11.4567 64.0542
1271 1 24.5759 13.0564 59.3204
4547 1 26.1917 14.0613 61.711
5039 1 27.5351 14.4022 59.7601
316 1 27.9614 12.2845 61.6119
3734 1 26.466 11.8897 58.5303
4707 1 25.4237 15.2927 60.0296
7012 1 28.37 14.8066 62.0789
4293 1 31.7974 14.7973 58.9908
2074 1 30.8296 12.3509 59.2179
560 1 29.7084 13.4911 60.7539
6617 1 31.271 15.5085 62.0978
6880 1 30.1065 13.1359 62.8643
5675 1 32.367 13.601 61.0322
2844 1 35.7664 14.901 57.036
694 1 33.6113 12.6597 58.3269
7266 1 34.8833 15.2759 61.7822
2376 1 32.8357 16.7646 60.6367
7562 1 34.9301 13.0402 60.5432
3256 1 35.7372 12.4884 63.3542
6469 1 1.29988 15.8442 57.8615
390 1 33.9228 14.9772 59.5215
3754 1 1.93821 15.2422 60.5491
67 1 0.276155 17.6322 59.0265
783 1 2.65811 18.1643 58.7514
7981 1 0.635608 16.813 61.416
6865 1 0.446143 19.2968 61.2603
2452 1 7.54723 14.554 58.956
1348 1 7.19928 19.1807 58.4714
6873 1 3.67743 15.847 58.7726
2714 1 3.08395 17.614 60.8899
3333 1 6.16268 16.6734 59.2677
3582 1 7.58356 18.8749 60.6171
950 1 4.1436 16.5536 63.7407
1346 1 8.09206 16.01 60.9415
3673 1 10.8089 16.2085 60.862
7821 1 9.38095 17.6909 62.2644
7901 1 10.7015 18.6038 60.5545
5672 1 9.60702 20.4136 59.2419
2131 1 12.4196 15.1591 59.423
5984 1 13.1756 17.1286 60.6022
944 1 13.6733 18.5305 61.9379
6460 1 13.7387 17.7805 58.3132
5757 1 12.6907 19.1924 59.538
557 1 14.3901 14.8569 57.6794
1992 1 17.221 15.5338 61.3254
3109 1 16.8091 16.2056 58.2101
3432 1 16.7805 19.0809 61.1671
3334 1 16.4831 18.6206 58.6934
7424 1 18.4836 17.3153 62.0987
2313 1 18.6333 19.4256 59.6931
1671 1 23.065 16.3114 60.1464
4314 1 20.6188 18.4348 61.7825
1187 1 23.7096 18.0515 61.6997
3670 1 22.6654 16.4295 62.8373
4720 1 21.1072 17.9822 59.5036
3177 1 20.9374 20.4068 59.9764
5426 1 22.6749 20.3277 61.9027
7912 1 23.2399 19.0328 59.4529
3498 1 25.394 16.4344 62.4318
7189 1 26.745 19.1073 58.739
5018 1 25.3779 17.895 60.1386
1909 1 27.5668 17.0262 60.5773
7436 1 29.6359 15.7726 59.79
2048 1 31.4907 17.2699 58.8336
5519 1 29.1485 17.1649 62.7637
7908 1 30.1007 18.0002 60.7827
3910 1 31.524 17.7805 62.878
556 1 27.8479 19.7141 60.5903
5496 1 30.64 19.8229 57.607
5488 1 36.0436 17.4381 56.805
7592 1 34.0206 16.9352 58.1828
7490 1 34.9036 17.6415 60.5709
306 1 32.9389 19.0347 61.0003
2378 1 34.116 19.6067 63.4606
7920 1 34.9518 19.9986 60.9316
7993 1 33.7581 16.943 63.1823
5420 1 0.289636 24.5145 60.219
1596 1 -0.896504 21.8626 59.5189
3916 1 2.68566 23.5323 60.7954
4240 1 0.970798 21.9003 61.008
4633 1 3.18981 20.421 60.577
7258 1 2.57476 22.4182 63.1252
1200 1 5.00034 18.6313 59.3916
3017 1 9.77944 22.4072 61.2925
931 1 4.52191 22.2086 61.4882
4131 1 5.47571 20.7635 58.8998
154 1 7.88773 21.6337 62.8865
3266 1 11.328 24.0657 62.7825
6376 1 9.25478 20.022 61.9115
1755 1 7.69979 21.4445 60.4648
2552 1 11.6625 19.1227 62.5192
6287 1 11.8035 20.9871 61.1748
2631 1 14.6374 21.1833 61.4289
2211 1 15.4449 23.8502 60.436
7334 1 13.0116 22.7853 62.379
6942 1 16.9645 22.4969 62.2831
1889 1 14.8791 20.2224 58.8313
3839 1 16.3193 20.6009 63.6485
7103 1 18.5439 20.1156 62.1053
3107 1 16.536 21.2496 60.125
6140 1 18.9993 22.3983 60.6294
3494 1 17.8359 23.657 59.06
1734 1 20.5442 21.481 61.9461
935 1 19.5935 25.0831 65.0304
3902 1 22.3438 20.573 58.2418
2797 1 22.195 22.2323 60.2071
1737 1 21.4128 24.1797 63.1236
7819 1 23.2192 22.4815 62.3898
1410 1 25.2648 20.1038 61.6077
3834 1 24.2489 21.0651 59.7903
218 1 25.1981 22.8569 61.143
528 1 27.3005 21.2248 62.1287
4304 1 26.9485 23.3953 57.811
2134 1 26.4889 21.591 59.4632
1669 1 31.075 20.4072 59.9222
2546 1 29.3001 23.5793 58.8457
313 1 29.2243 19.8002 62.0065
219 1 29.3417 22.1018 60.7965
2854 1 31.1599 23.6771 60.4679
3596 1 31.6567 19.9297 62.5799
1105 1 33.9146 21.1345 58.4763
1336 1 31.5867 21.9945 58.467
7020 1 33.0725 21.5543 60.8992
6472 1 34.999 23.5313 61.1219
6874 1 33.3543 23.6791 59.2725
7838 1 35.8933 17.5607 63.0017
6238 1 0.823906 24.0165 62.7543
618 1 2.62804 25.3651 59.7702
4864 1 2.3661 25.5245 62.163
4149 1 2.7285 28.3024 60.9142
1104 1 0.978052 26.8182 60.8028
4625 1 4.75874 27.2227 60.0315
3407 1 1.18043 28.5416 63.0583
3570 1 4.40432 24.7627 62.0872
1179 1 7.1656 25.3955 59.2575
299 1 7.03466 23.6005 61.0923
2068 1 7.37437 25.9694 61.9968
6466 1 7.12434 28.6453 62.3618
6710 1 2.46 27.0931 58.309
3275 1 9.60026 26.1938 63.373
1997 1 9.50297 24.787 61.1454
5495 1 11.5905 23.5638 60.4199
3103 1 11.4249 27.5366 62.3386
3184 1 15.8817 24.9958 58.4601
1101 1 12.8465 21.3708 59.0463
4150 1 13.3588 27.5799 60.8604
5503 1 15.5387 27.7768 59.4845
7355 1 15.3687 25.9715 61.2287
1266 1 13.0102 25.25 62.059
1827 1 17.0548 26.0914 59.7506
2611 1 17.6326 25.0777 61.9491
2788 1 19.1349 23.7881 62.731
1836 1 18.195 27.7459 61.3836
143 1 19.5177 25.5045 59.3599
69 1 17.4333 29.898 59.5668
1912 1 20.7903 24.0847 60.8109
3912 1 23.4741 24.1548 60.4788
1251 1 21.3347 26.3951 59.4671
5969 1 22.3647 25.7608 61.6228
5827 1 23.8251 26.9246 60.0387
149 1 20.8678 27.7617 61.4484
2382 1 25.033 24.9944 58.8811
5024 1 26.1094 27.1345 58.9353
7027 1 26.9302 24.4489 59.9546
5806 1 24.2896 24.9267 62.6257
635 1 26.0218 26.4434 61.9493
7022 1 27.8315 25.7283 58.1338
8000 1 28.7724 25.8153 60.3153
3976 1 27.6828 27.9984 60.526
1581 1 31.4015 25.4602 59.229
6072 1 30.6023 27.3445 60.1526
6220 1 32.9125 26.5906 60.5795
5735 1 34.9209 25.6091 59.1407
6399 1 35.3962 26.036 61.5503
6318 1 31.0399 25.6739 61.8628
2623 1 4.1497 28.8587 58.1819
2950 1 1.19952 32.3152 58.1221
2960 1 3.42036 27.5283 63.8417
2545 1 2.99506 30.3436 59.8931
6789 1 7.70214 29.6296 59.0153
6622 1 7.1207 27.5849 60.1224
634 1 5.43341 27.2641 62.5789
2947 1 5.0409 29.4721 60.4892
7678 1 1.81535 30.3403 61.9903
7679 1 6.3902 30.7792 61.5431
4291 1 4.17991 29.5593 62.8863
6316 1 9.14843 27.5274 61.1793
7995 1 11.1443 26.0764 60.5705
4119 1 11.1694 29.8853 61.6189
1656 1 10.1643 30.4703 58.9517
7193 1 8.80824 30.1724 61.2215
2451 1 11.0751 32.5447 60.1055
630 1 12.4567 31.7283 61.9093
947 1 15.3364 30.3513 59.9952
794 1 15.799 28.2904 61.8142
1494 1 13.7366 29.7455 61.5999
3915 1 14.5805 32.1918 59.0745
3174 1 17.1429 32.0825 58.4815
3903 1 14.7752 31.6382 62.242
1327 1 17.0601 30.1137 62.2458
7187 1 19.0603 31.4291 59.7246
3195 1 18.3889 31.8814 62.4506
7729 1 16.8201 31.8351 60.9427
2786 1 21.0814 31.1828 58.5342
1352 1 23.6559 30.9874 58.7351
4217 1 19.2138 29.897 61.998
1569 1 21.3663 30.9571 60.9916
5753 1 22.3211 28.8618 59.6759
1661 1 21.989 29.9003 63.3913
1751 1 23.5956 30.6936 61.5258
687 1 24.6069 28.9948 58.5302
539 1 23.3235 27.9604 62.1488
6449 1 27.395 32.4203 59.3599
1993 1 27.0899 29.6615 58.9964
6127 1 25.4452 31.2485 60.0405
6788 1 25.6111 30.8663 62.8776
2709 1 25.4259 28.5173 60.8536
5258 1 30.9057 29.604 58.7796
5739 1 29.1552 27.8077 58.4924
3099 1 27.4804 30.5126 61.3153
1888 1 28.3428 30.3557 57.5549
6156 1 29.6832 29.1642 61.3908
7897 1 31.8041 31.1276 60.7747
3591 1 32.7291 27.846 58.6691
7435 1 35.0925 27.8799 60.2905
3844 1 0.68682 28.9311 59.9285
4878 1 32.3042 28.6792 61.2053
2952 1 34.3265 27.8102 62.6558
1815 1 34.2233 30.0421 59.7102
5494 1 33.6181 30.2986 62.248
4305 1 0.162942 34.0631 59.6231
856 1 4.09564 35.6511 58.4366
1325 1 -0.0263227 31.17 59.6695
7906 1 2.28455 32.5479 60.2575
50 1 1.38988 -0.380065 58.4446
1023 1 3.93135 31.8088 58.2641
460 1 4.57778 34.0082 60.3862
4541 1 4.21971 31.656 61.402
3885 1 3.66428 33.7211 62.3067
3749 1 6.5863 35.7844 61.4008
3189 1 6.85072 34.4427 59.6726
5885 1 5.73361 31.8406 63.5017
6004 1 12.1195 -0.275431 58.3053
7110 1 12.3063 -0.32347 63.3871
1343 1 6.61843 33.3174 62.0341
4315 1 8.13591 32.097 60.2265
878 1 9.62868 32.0746 62.5144
2390 1 10.7871 34.5808 59.7112
228 1 9.06642 34.0886 61.5399
5255 1 13.2346 34.3128 58.8598
399 1 12.1734 32.0483 58.1101
3657 1 15.9035 33.9411 58.3154
3830 1 15.3961 34.4506 60.5825
1592 1 13.4049 33.6087 61.2157
543 1 11.3818 34.3041 61.9273
620 1 14.7197 35.2297 62.4947
550 1 12.8556 34.0893 63.9684
5431 1 19.2084 35.2323 58.518
5429 1 17.1231 36.4892 59.598
1510 1 17.6892 34.0133 59.787
2845 1 16.6743 33.4931 62.4463
7325 1 19.8297 33.4516 60.757
3832 1 19.8801 33.6857 63.0632
5434 1 18.2282 35.4153 61.5462
7587 1 22.0482 32.917 59.7408
5592 1 22.0314 33.16 62.1235
4943 1 21.2606 35.4006 60.0274
4214 1 22.9551 -0.41922 61.9811
2396 1 20.5359 36.0705 62.4071
1830 1 24.1443 33.4654 61.362
4075 1 23.7041 35.4867 59.9699
2861 1 25.7063 34.0306 59.5752
7649 1 26.4655 32.9581 61.6295
1748 1 25.4735 35.3096 61.9659
2450 1 29.4505 33.434 58.3487
3491 1 30.5758 35.1817 59.4248
2381 1 27.9274 34.4206 60.3254
5092 1 29.2132 30.9813 59.6839
6151 1 31.0877 31.7395 57.5406
6453 1 30.2286 33.1648 60.8346
4542 1 32.3925 33.1804 59.9823
5731 1 34.7229 32.4975 60.3072
2864 1 0.713007 33.1464 61.7742
1501 1 32.6362 36.1861 58.7438
1357 1 34.2601 35.17 60.2481
2853 1 32.0235 34.9089 61.4121
6783 1 34.0647 34.0712 62.2295
5678 1 1.70298 2.21119 64.0376
396 1 1.66368 0.17381 65.8249
5909 1 0.0666641 2.23619 65.9268
1189 1 2.07582 1.89228 67.6582
474 1 -0.0373752 0.5714 63.8962
799 1 4.36123 36.4084 62.6391
2373 1 5.96104 2.78074 64.1741
296 1 5.73978 0.301995 65.3237
7915 1 3.5768 1.63426 65.047
6224 1 7.86359 35.7799 63.5633
7583 1 6.62641 2.75682 66.7111
958 1 7.29599 0.487422 67.2853
6053 1 4.65048 1.58998 67.4623
1351 1 10.0419 0.35612 63.5265
1496 1 8.08737 1.17947 64.6769
638 1 10.6301 2.18518 65.1868
6854 1 10.6119 0.588635 67.5602
2635 1 9.27887 -0.557819 65.8327
862 1 13.907 1.05067 62.1314
2633 1 11.501 3.89565 63.9057
716 1 13.0129 1.97679 64.7315
4235 1 12.3592 2.69422 66.8466
7197 1 16.4522 1.99844 63.8952
2707 1 12.9769 -0.372168 65.5938
3742 1 15.0786 0.327135 64.4639
1035 1 13.849 1.01086 67.4474
869 1 16.5776 0.239906 66.3098
3909 1 17.7127 2.06335 65.9347
3439 1 17.1085 4.4271 65.7285
2795 1 19.5651 0.377919 66.1829
5344 1 15.1987 2.78283 65.7148
3588 1 19.5698 2.16431 64.2104
4067 1 21.2752 1.84113 65.9636
1103 1 23.5536 0.340237 65.4839
6640 1 21.7127 -0.146582 64.2282
4306 1 23.3614 1.63731 63.432
2869 1 22.0984 0.547335 67.7075
1014 1 27.274 2.12897 64.0181
3520 1 25.139 -0.0195253 63.8356
948 1 27.1998 -0.0112583 65.6569
7091 1 25.5161 2.12741 65.7036
6391 1 27.1223 1.92643 67.4274
1421 1 27.2419 35.5693 63.9303
4136 1 29.3684 0.223489 63.5477
3030 1 29.116 1.83223 65.8585
1998 1 32.7423 1.3779 64.8949
1802 1 29.9803 3.92813 64.7042
7107 1 31.6984 0.190252 63.0586
1905 1 31.1972 2.92413 63.1645
1037 1 34.905 0.0227629 65.507
1520 1 34.6916 34.3071 66.1641
232 1 34.2241 1.89231 67.1455
7422 1 33.176 -0.263759 66.9889
7270 1 33.203 3.68163 67.6565
5187 1 -0.115935 4.10457 67.8626
1029 1 34.3041 -0.088868 62.4286
5186 1 35.1195 4.00481 65.8949
7899 1 1.71271 3.79018 66.0518
2203 1 -0.0563621 3.65797 64.0118
2470 1 -0.15837 5.78313 66.0425
7594 1 2.77377 8.20887 66.2562
5906 1 0.906226 7.84037 64.3301
463 1 4.72887 4.11898 62.8948
5976 1 4.2056 4.11565 65.2361
6697 1 2.33887 6.19214 64.8206
3482 1 7.07454 4.77275 63.88
5030 1 4.52021 6.50164 66.7147
1195 1 6.45766 4.98791 66.1036
5597 1 7.64208 3.03032 61.805
3751 1 6.78411 6.60267 68.2051
5120 1 8.31416 3.6265 65.3519
3426 1 7.88424 4.36444 67.7562
7358 1 10.754 4.67588 68.4853
2528 1 9.00196 5.81472 66.4218
1664 1 11.5329 6.16075 64.704
2629 1 6.33819 8.45409 62.8517
1199 1 10.8481 7.00219 67.6631
1594 1 10.9191 4.36829 66.0791
1106 1 12.9807 7.38366 66.4579
1659 1 15.0128 4.00585 63.919
5003 1 13.4116 4.75605 65.6326
2274 1 14.1265 7.72794 64.2061
5349 1 15.2786 6.16203 65.9024
3918 1 16.5258 6.16681 63.8368
5439 1 14.225 3.60598 67.8262
3741 1 17.5545 4.04872 63.4477
640 1 19.3965 5.22663 64.4309
956 1 17.8742 6.93685 65.5776
2129 1 20.0943 9.18404 64.3177
1278 1 19.896 8.01378 66.7222
4239 1 21.3402 3.42859 64.0841
6793 1 20.8084 7.26908 64.639
5836 1 19.3896 3.84923 66.3772
4462 1 21.1189 5.46366 66.4378
6775 1 23.5764 3.6006 65.1898
1736 1 23.4339 5.84242 64.2829
47 1 25.6557 4.47259 64.0662
230 1 27.3336 4.03745 66.2056
3359 1 27.9592 4.94445 63.7508
6717 1 25.3284 5.74638 66.0115
6704 1 25.4053 6.68644 63.8315
3514 1 27.3801 6.83021 65.446
2556 1 31.3681 5.56567 63.5798
5890 1 29.234 5.60268 66.4642
76 1 31.4171 5.16117 67.2916
60 1 31.9621 3.29676 65.7625
3096 1 31.2611 7.46422 65.7365
4879 1 33.37 4.15958 63.862
1096 1 35.0089 6.09187 64.1022
6630 1 34.4717 5.87237 68.0276
1518 1 34.6012 7.51886 65.9316
6279 1 33.4505 5.80152 65.9698
7491 1 32.9149 7.9484 63.7122
6234 1 3.08213 8.4185 63.2381
7598 1 1.28487 12.186 65.2564
5355 1 2.74295 12.2104 66.9826
6212 1 0.0634234 10.7495 63.9615
533 1 2.81412 10.4672 64.6856
3039 1 5.0792 8.37435 65.3802
5345 1 0.983974 9.91146 65.9575
4873 1 1.88386 9.85435 68.1766
5736 1 4.79846 10.2801 63.5059
4871 1 7.13694 7.17448 65.3772
7111 1 6.84477 9.45454 66.0449
6145 1 4.1888 10.2223 67.1526
4523 1 6.32544 9.20002 68.3527
2857 1 8.28091 9.55338 64.5205
3124 1 8.69573 8.21605 67.4911
7759 1 8.60328 10.3976 67.2043
1924 1 9.9754 7.87624 65.2506
2542 1 12.0124 11.4882 67.1329
7326 1 12.5548 11.1977 63.405
1409 1 10.3689 11.0029 65.2715
6043 1 11.1538 9.58413 66.9973
6153 1 14.7852 10.0923 63.863
7501 1 12.1798 9.31916 64.6003
1733 1 13.8801 9.74536 66.3135
158 1 15.9889 8.88828 65.4244
5760 1 14.4938 11.8183 67.7641
3440 1 18.79 11.4608 63.9883
4531 1 17.8418 8.64094 63.7096
3284 1 18.002 9.50323 66.094
477 1 16.3166 11.2058 65.5923
4548 1 17.5276 11.9256 67.5028
5588 1 18.9633 10.3628 61.7486
3023 1 19.7089 11.3401 66.0621
6049 1 22.3763 9.46611 63.902
1911 1 21.9753 7.52273 67.3809
4865 1 21.6147 9.6337 66.0113
4145 1 23.6105 8.22681 65.4686
2077 1 21.7088 11.5928 67.9017
3029 1 23.5249 9.82341 67.4904
4312 1 25.3791 11.3247 67.3774
3672 1 25.3379 12.0466 63.2508
6217 1 27.7246 8.54523 63.867
4952 1 25.7864 9.10604 65.9364
3565 1 23.9373 11.005 65.1274
2230 1 30.3306 8.61698 63.6255
6547 1 29.27 8.53295 66.0389
4384 1 28.8751 10.8541 67.2059
1194 1 31.0277 9.49643 67.9015
7359 1 28.8319 10.9221 63.4556
5437 1 30.4005 10.4934 65.2419
5839 1 34.3729 10.6191 63.8315
3337 1 32.813 9.44713 65.8242
5837 1 35.1974 8.39242 63.7515
5498 1 35.5528 9.76598 65.7489
5524 1 33.1335 11.4059 67.0798
1498 1 0.763401 13.3944 67.683
234 1 2.47764 14.6359 66.7292
7879 1 2.65145 14.5966 62.7773
383 1 0.705804 14.4808 64.5722
1165 1 3.46312 13.2696 64.841
7653 1 1.39717 16.3963 63.5264
1116 1 2.30463 16.7494 65.7149
5912 1 6.5838 11.8695 67.0061
3518 1 4.83801 13.3607 62.6325
7748 1 5.2198 11.5412 65.4097
7108 1 4.92418 13.3105 67.369
1426 1 6.25265 15.2716 62.877
318 1 4.39172 15.3443 65.6966
1999 1 7.70298 14.7654 66.8554
5433 1 3.02334 16.8834 68.7139
5190 1 9.9319 14.8741 65.1595
4230 1 6.34495 13.8826 64.8412
4451 1 8.27636 12.3117 65.2816
3597 1 8.0474 16.0769 64.9885
6933 1 10.2904 15.3995 67.4548
1335 1 11.1781 12.8797 64.8012
6952 1 15.888 12.623 63.8578
2001 1 13.8745 12.0103 65.1309
2798 1 14.8447 13.8534 65.6435
3270 1 13.5304 13.5377 63.5225
7034 1 14.252 15.3968 68.0237
7418 1 12.5227 15.262 65.4033
5752 1 12.3995 13.8085 67.6498
2152 1 19.2723 15.5219 63.3567
6713 1 16.3382 15.507 66.2026
5898 1 17.9541 13.4127 65.7316
2800 1 16.0015 13.7378 68.0593
926 1 19.9362 15.0748 66.1737
398 1 19.9375 13.6511 64.0279
139 1 21.7996 15.1192 64.3498
5518 1 21.4195 13.0432 65.8166
7977 1 23.7654 14.5247 61.5885
2233 1 23.6828 14.9128 66.0459
5832 1 19.6886 13.1 67.8187
1982 1 22.0552 15.5733 67.579
4060 1 27.5787 13.2254 64.1192
7032 1 23.5713 13.2567 67.6144
6310 1 25.7129 13.3678 65.6929
4957 1 27.258 15.3102 65.7877
6229 1 23.1801 13.206 64.0112
5920 1 25.4908 15.1293 67.3229
3435 1 24.7371 15.048 64.0106
6959 1 33.2547 12.3275 62.7325
3982 1 27.1647 10.8468 65.0514
466 1 31.9756 10.2499 63.2467
7031 1 29.545 12.6343 65.3473
7890 1 29.7614 15.2671 64.0251
5118 1 30.8534 12.4427 67.4448
1416 1 34.2605 13.3083 67.5104
2775 1 35.719 12.1376 65.8354
6132 1 34.1589 13.6609 65.14
6627 1 32.326 11.7438 65.0284
5991 1 31.9909 14.4294 66.8295
4320 1 35.8733 14.747 66.8524
2387 1 2.3375 18.2767 63.1014
2858 1 0.074789 17.1741 65.3546
5189 1 1.03964 16.4343 67.5786
2880 1 2.98712 20.2553 62.6293
4787 1 2.24404 18.9332 65.2011
4686 1 5.64731 17.4482 61.7149
6879 1 5.58427 16.4481 67.3026
2241 1 6.95621 19.6425 63.9835
7267 1 5.98201 17.2752 65.1216
6159 1 6.72923 18.697 67.2008
5022 1 4.4858 18.8761 63.6726
2876 1 4.35158 18.2204 66.4723
1680 1 7.39955 17.654 63.0486
1812 1 10.5173 15.756 63.1125
1725 1 10.6288 18.6775 64.3391
3587 1 10.8137 16.8523 65.521
3503 1 8.55511 18.6087 65.2556
7745 1 8.60425 16.9509 67.2899
5587 1 14.9179 15.3948 63.667
2311 1 15.6619 17.2269 61.9972
6077 1 12.7946 17.3305 63.8429
2062 1 12.8949 18.6974 65.644
1107 1 14.3411 16.9602 65.7218
3679 1 17.1045 16.5516 64.1694
6928 1 16.3474 18.2577 65.8757
1739 1 18.1759 17.0921 66.2942
3512 1 18.1173 18.7809 64.0009
6467 1 16.1093 16.9182 67.8441
5754 1 20.0689 18.9331 65.9695
5647 1 20.5845 17.759 64.1659
7116 1 22.3447 18.7707 63.5362
1566 1 23.5031 18.958 65.8728
479 1 20.1373 16.6759 68.1771
382 1 25.2031 19.0747 63.9405
5598 1 27.2941 18.3612 62.427
705 1 25.2057 20.6296 65.9217
4398 1 23.4953 17.0301 64.7394
7663 1 23.7701 17.0388 67.3506
4079 1 25.508 17.4041 65.6507
2529 1 26.8843 16.5473 64.197
619 1 27.3103 18.7177 65.9167
6791 1 31.5175 16.1238 64.558
1417 1 29.222 16.6194 65.5754
637 1 29.706 18.7815 64.2584
1006 1 31.5219 13.6689 64.4525
7113 1 30.9394 16.6976 67.3952
5277 1 31.4995 18.3721 65.7268
5919 1 33.872 15.9059 65.3356
385 1 33.1827 14.6989 62.8871
5107 1 35.7797 15.5556 64.1066
2619 1 33.6548 18.0552 65.1206
5515 1 35.4188 19.2846 65.246
5664 1 33.2483 20.5966 66.1476
7987 1 35.3137 17.6701 67.2184
1026 1 0.306299 22.1593 64.0529
782 1 0.399473 19.7733 63.7741
6716 1 3.51364 21.4848 65.1555
7167 1 0.413893 20.7172 65.9359
3261 1 1.56363 23.0109 66.0704
6958 1 5.11054 21.1857 63.4028
6470 1 5.80504 20.0307 61.535
7835 1 4.51271 23.249 64.0632
2318 1 6.56551 22.2164 65.0574
6384 1 4.26338 22.8732 66.8924
5335 1 8.87249 20.9505 65.0016
7512 1 8.68104 24.0066 63.4769
224 1 5.88927 20.2791 65.7125
229 1 8.46366 23.0141 65.8174
1833 1 10.9966 20.5236 65.5637
1100 1 10.6905 21.4708 63.3762
3756 1 10.6757 23.0954 64.9639
1342 1 13.4253 20.5542 63.7507
6685 1 15.2601 22.7857 64.261
2790 1 15.2599 20.3739 65.7307
3410 1 12.9303 21.8502 65.4024
4478 1 13.5447 24.0203 64.2288
2160 1 15.1363 24.2117 66.2024
3110 1 16.7515 22.3108 66.2269
4637 1 15.115 18.8503 63.8025
3967 1 18.6697 21.9598 63.775
2879 1 18.0462 20.4288 65.7427
1435 1 17.3202 24.0798 64.3979
4718 1 15.3528 25.6268 64.347
5511 1 19.4057 22.4123 65.9527
2383 1 20.4514 20.2708 64.0005
4950 1 21.7129 20.5751 66.0713
3668 1 21.2703 22.2692 64.2845
5994 1 23.5019 20.6379 64.0608
3097 1 23.7936 22.3909 66.021
6397 1 21.6667 23.6768 66.1153
4374 1 27.2208 20.3981 64.2472
7574 1 27.0653 22.7895 65.5804
3895 1 25.4235 21.8502 63.8985
3341 1 29.0012 21.9292 63.4503
5358 1 29.0571 20.7292 65.7125
3119 1 31.0872 20.4954 67.1381
1818 1 31.465 21.025 64.7414
2389 1 28.9008 22.4901 67.1673
6063 1 30.1015 23.0803 65.1128
6720 1 30.8229 24.4095 66.8135
1515 1 33.3925 22.1127 63.166
7255 1 33.1994 24.4431 61.7271
3326 1 35.378 21.5104 62.4511
236 1 0.715681 21.7075 68.4518
2222 1 32.2319 22.542 66.0715
3821 1 34.8774 21.6646 64.8634
1407 1 2.70525 24.6407 64.2616
3889 1 -0.790006 22.7117 66.4646
6307 1 -0.112667 26.4608 63.4994
548 1 1.53859 26.8913 65.0048
7357 1 0.286823 25.0811 65.619
6638 1 35.7788 25.7 67.3567
7044 1 2.06647 26.0973 67.3542
880 1 3.65615 25.0617 66.2303
5338 1 6.35199 24.1831 63.2402
1579 1 6.92425 25.1353 65.7642
5817 1 5.0151 26.2241 64.6554
1679 1 3.84867 28.2826 66.0759
6705 1 7.52127 26.898 64.0758
1760 1 9.96227 25.2766 65.8407
7665 1 11.7406 25.6516 64.3417
7104 1 8.82107 27.325 66.6099
934 1 9.62975 28.3909 63.4891
6131 1 8.79962 29.3397 65.5511
7343 1 6.45248 27.5277 66.4628
1486 1 11.2097 25.8921 67.4546
1013 1 13.2434 25.7494 65.9593
2877 1 14.1029 27.2007 63.1105
2071 1 12.5039 23.6027 67.1589
2533 1 13.9885 27.8445 66.0382
957 1 12.463 27.9676 67.6248
1438 1 12.7301 28.6917 63.8004
1034 1 14.4271 25.9268 67.7264
5269 1 16.4544 24.6059 67.9897
4472 1 17.1193 25.9917 65.9991
3245 1 18.2713 26.8091 63.7405
3262 1 16.1736 27.6663 64.0368
792 1 16.1361 27.4938 67.6423
3438 1 18.7075 27.9946 65.7276
4636 1 20.6283 28.3517 64.0548
7991 1 20.0021 25.8886 62.3398
1738 1 20.9276 26.7582 66.0179
301 1 22.2911 26.4088 63.9437
7096 1 23.6398 25.7037 65.9627
211 1 20.3145 28.2504 68.0607
367 1 24.9093 26.8323 64.3549
1117 1 23.6644 27.9843 68.0631
5032 1 22.8708 28.8728 65.8547
6545 1 26.488 23.7294 63.1197
4477 1 25.6507 24.6942 65.3517
1349 1 23.4261 23.8946 64.1791
5979 1 28.2823 24.6607 65.2934
7017 1 27.0221 26.5723 65.8499
3324 1 27.7473 25.8446 63.6035
5204 1 29.1563 27.2311 62.5944
1665 1 30.8625 23.0933 62.6073
797 1 28.6914 24.0874 62.219
54 1 30.2346 25.4025 64.0078
1514 1 29.0162 26.4661 67.1812
714 1 29.2483 27.6858 65.0464
2154 1 31.2269 27.6269 63.8552
7814 1 34.3504 24.1653 65.7424
564 1 32.9521 26.1541 63.1873
6637 1 32.6616 23.9315 64.0662
2146 1 35.2874 24.3815 63.5127
7982 1 33.1525 26.0674 67.3131
2231 1 34.6887 26.2618 64.8722
2072 1 32.0893 26.1311 65.3832
153 1 34.7513 28.3084 67.4356
5117 1 36.045 29.76 61.8862
952 1 0.522596 30.7939 64.3844
625 1 -0.487753 32.8466 65.6489
6629 1 0.474648 28.3782 66.7885
5999 1 0.878188 31.8192 67.5793
7983 1 2.30584 29.6429 65.1566
2398 1 6.03237 28.6833 64.6054
4770 1 5.12827 30.688 65.4196
3581 1 5.02494 29.7656 67.7893
6955 1 7.40238 30.2997 66.9262
3271 1 5.53202 32.2518 67.5573
7674 1 10.9839 30.3026 64.0925
4948 1 7.81433 30.4823 63.6792
4458 1 9.01567 31.9657 67.5664
235 1 11.1855 32.0423 66.7421
5580 1 6.90881 32.4445 65.5802
1191 1 9.19261 31.6463 65.1979
2557 1 10.5602 29.4614 67.1605
7106 1 10.8163 27.8945 65.4317
7102 1 13.5611 31.4342 64.454
552 1 12.6401 29.8135 66.1507
3345 1 14.8507 29.53 63.8285
4000 1 14.8243 31.0148 66.2679
5411 1 15.0028 29.3788 68.0528
1425 1 16.3031 29.1934 65.9657
1662 1 18.1646 29.6842 64.2625
1650 1 17.8487 31.0767 66.0119
1759 1 16.5248 31.4096 64.1239
2855 1 16.7557 31.1337 68.1067
1828 1 20.4957 31.6766 64.0175
2156 1 20.1288 29.9331 66.0695
2691 1 24.4283 29.3545 64.083
1254 1 25.1091 27.8958 66.3541
5339 1 22.5807 31.4265 65.6708
1513 1 19.7429 30.9346 67.9057
2469 1 21.9196 30.2016 67.7891
1268 1 23.6693 32.2748 63.4021
366 1 23.9523 31.107 67.3478
3507 1 27.9012 31.2799 64.0188
71 1 27.4444 29.4317 65.7176
2953 1 26.8615 28.293 63.1051
4629 1 27.2237 31.0724 67.5425
1754 1 25.7518 31.031 65.2055
6000 1 25.5912 29.3444 67.9888
1575 1 29.7958 31.3699 62.3681
1114 1 31.6093 29.9733 63.3706
5747 1 29.4219 29.3339 63.5779
7114 1 31.388 31.7214 67.6228
7999 1 29.3476 30.7869 66.3017
6621 1 31.2004 29.7655 65.6677
4396 1 31.1558 27.7982 67.0772
395 1 28.9744 28.927 67.5592
713 1 35.8464 28.685 64.7321
5651 1 33.3671 28.8384 64.6189
4381 1 32.4209 31.5291 65.263
5673 1 34.7605 30.7025 64.13
7502 1 34.1658 31.9983 67.2584
7352 1 35.4876 30.3547 66.2668
2399 1 33.0491 29.8344 67.3549
5831 1 1.24884 33.6469 64.1416
5650 1 1.74488 35.7716 63.0456
2794 1 0.00922665 35.3694 65.3893
7433 1 1.68016 33.7469 66.3755
5512 1 36.3802 34.1364 67.7291
6479 1 3.47621 31.953 64.2343
73 1 3.42142 31.4323 66.7863
4599 1 3.05102 35.2852 64.7482
471 1 5.54859 34.9376 63.9502
7276 1 4.82264 33.4795 65.5742
53 1 7.29185 34.9549 66.1581
5096 1 3.57972 34.1435 67.4647
387 1 10.1612 34.9012 63.8368
5814 1 8.07756 33.3186 63.8039
1678 1 11.3331 32.5607 64.2783
1825 1 9.3467 33.6761 65.9201
547 1 11.3895 34.9588 65.9817
7269 1 7.28802 33.5987 67.9921
1600 1 13.0546 33.266 66.1744
2147 1 14.9174 35.1754 66.171
5582 1 14.9013 33.3368 64.398
2461 1 13.2654 35.1677 67.749
4932 1 14.6818 33.08 67.9717
1593 1 16.3346 32.9573 66.5699
4307 1 16.6104 35.1739 64.2377
4301 1 18.618 33.0687 64.8685
7438 1 17.7695 34.969 66.5693
4876 1 19.8778 35.0307 65.171
6701 1 18.0852 33.1948 68.1443
7517 1 20.1474 35.2541 67.7089
3517 1 20.5595 32.9134 66.4555
3427 1 22.6146 33.1339 67.8451
5824 1 22.333 34.9854 66.2427
4461 1 21.7215 33.509 64.5057
3584 1 23.9519 33.38 65.8656
703 1 23.5325 34.4685 63.7153
6554 1 24.2991 34.9818 67.784
7750 1 25.7747 33.5034 64.1571
765 1 25.5081 35.2864 65.6806
555 1 27.6087 33.4433 65.5677
3437 1 30.8525 35.4393 67.5027
3755 1 31.8503 32.5183 62.8598
3353 1 28.1135 33.5447 63.0328
4614 1 29.9857 32.7663 64.9136
695 1 28.8275 35.2614 65.939
4459 1 30.8115 34.4679 63.3764
4560 1 35.8991 32.6481 63.3563
7412 1 30.7982 -0.0998636 65.2784
7582 1 35.9142 34.9903 62.8957
1257 1 33.8559 33.0988 64.4956
6463 1 33.1979 35.7292 64.647
785 1 31.7826 33.8515 65.8261
6551 1 33.1672 33.9962 67.6643
4851 1 -0.165484 0.155881 67.2245
7284 1 1.19489 2.12672 70.8121
7516 1 1.52851 0.597679 69.3853
1038 1 3.58579 2.85705 69.617
7281 1 36.497 0.142429 71.5029
7353 1 1.86364 4.35771 69.2356
81 1 3.68396 0.790567 70.8291
7181 1 3.84518 -0.307393 66.5075
7505 1 5.42576 0.8653 69.4413
881 1 6.88849 0.698491 71.0928
7439 1 5.11296 2.65427 71.3002
5834 1 7.43773 2.41273 69.3547
784 1 9.05971 2.41774 67.4395
1681 1 10.8694 0.380062 71.1316
960 1 9.26765 0.563164 69.4609
1761 1 11.0401 2.32958 69.4032
884 1 9.27884 2.14371 71.5726
6556 1 9.05964 3.87465 69.6786
1684 1 12.4096 2.19113 71.8055
1039 1 14.3849 1.86299 70.0974
4798 1 12.7846 0.266079 69.3802
3917 1 13.917 0.190706 71.7075
2481 1 16.18 1.91843 68.2214
3663 1 18.1644 0.563227 68.1597
2482 1 16.1061 2.31415 71.5613
3519 1 18.1642 2.1467 70.0142
3281 1 18.1382 0.30888 72.0636
2404 1 16.6666 0.538842 70.0615
553 1 20.018 2.19756 68.0361
6396 1 23.7093 1.88897 67.4885
4081 1 20.2751 1.9642 70.8722
1976 1 20.2315 -0.0168775 69.6969
4083 1 22.0828 -0.34098 71.2232
2468 1 22.2615 2.05394 69.3882
4084 1 23.7047 1.88002 71.4119
4635 1 23.9137 -0.00486031 69.433
4623 1 25.6097 0.253899 67.7167
4877 1 26.1065 0.320708 71.2193
4963 1 27.507 2.27398 71.0028
5681 1 27.6859 0.168059 69.4031
4404 1 25.616 2.03404 69.4853
4388 1 31.2109 1.78042 67.5066
1651 1 29.3025 0.379793 67.6589
5684 1 31.2699 0.221622 69.3764
5682 1 29.0573 0.281953 71.2098
7272 1 29.4446 2.03877 69.4374
6562 1 31.2385 2.30711 71.4086
240 1 -0.509491 1.92369 68.7248
7188 1 33.0233 1.8505 69.405
5759 1 34.5948 0.0579237 68.9405
6481 1 32.7505 0.150014 71.4122
6484 1 34.7136 1.84069 71.2563
6559 1 33.3143 3.97868 71.0923
7907 1 34.6774 4.08994 69.3813
1588 1 -0.224195 5.90589 69.164
7361 1 36.6755 4.01404 71.0928
7431 1 1.9127 6.34398 67.5533
7364 1 1.2673 5.96049 71.2691
2610 1 0.0393142 7.81424 67.5885
702 1 -0.349324 7.77438 70.8778
5585 1 3.7621 4.17814 67.4728
7569 1 3.69123 5.92767 69.4039
161 1 3.03183 4.15186 71.2759
4616 1 5.75295 3.86647 69.065
164 1 5.08196 5.56982 71.2467
961 1 7.08801 3.76526 71.438
2057 1 7.32088 5.4284 69.9553
964 1 9.15233 5.63229 71.7509
1193 1 9.245 6.68855 69.0736
1762 1 10.9707 4.25399 71.4302
1841 1 10.5522 7.41497 71.2833
1838 1 12.8106 5.38027 67.6739
4054 1 12.5878 4.29122 69.7555
2484 1 14.5437 4.00778 71.262
1764 1 12.6446 5.73722 71.5887
473 1 14.3877 5.95268 69.6772
2554 1 14.1317 7.8019 71.0166
1839 1 17.7724 3.73725 67.8702
3364 1 16.0082 5.71743 67.8786
1108 1 16.2103 3.99872 69.6945
2564 1 16.5104 5.86931 71.4066
4146 1 17.7468 5.78354 69.2347
3361 1 18.1988 4.24732 71.376
3521 1 16.2907 7.57197 69.9066
7263 1 17.5253 8.20892 67.9138
5027 1 23.3141 5.67977 67.6799
4872 1 19.8595 4.00882 69.4259
227 1 22.1171 3.57951 67.1671
1920 1 19.0705 5.89115 67.3999
4161 1 20.4377 5.65418 71.5794
1677 1 21.8906 3.94909 71.3255
1994 1 21.5999 5.41575 68.9629
7586 1 23.9517 5.72597 71.2414
4393 1 27.2886 6.14624 67.7283
2639 1 25.476 4.04148 67.6508
5272 1 24.873 7.62556 67.7668
68 1 23.7907 3.96871 69.6576
4313 1 25.5402 4.16938 71.069
5025 1 27.4031 3.80756 68.9944
4964 1 27.3105 5.76266 71.1641
4317 1 25.3889 5.83723 69.3624
4159 1 27.686 7.55842 69.5334
1817 1 29.4827 3.73602 67.5874
7911 1 29.5151 7.44741 67.7829
5761 1 29.6763 3.89059 71.2693
5035 1 29.8711 5.6864 69.3276
4884 1 31.33 3.62239 69.2719
5764 1 31.0851 5.6629 71.8352
3031 1 31.0348 7.5246 69.9524
5841 1 29.2159 7.59969 71.4541
7124 1 32.3806 7.44473 67.8989
6564 1 32.7315 5.55642 69.519
7599 1 34.5965 5.95066 71.5158
5829 1 34.364 7.54056 69.4406
6719 1 32.8774 7.78584 71.876
3034 1 1.79554 7.68769 69.4768
7518 1 -0.366095 9.63577 69.4325
1115 1 1.66739 9.66126 71.0873
7190 1 -0.0397743 10.9838 67.4848
7515 1 1.41077 11.7477 69.4653
7521 1 -0.152017 11.2466 71.268
7830 1 3.69161 9.85495 70.008
321 1 3.79011 11.6018 71.258
241 1 3.40259 7.8333 71.0431
4540 1 4.07644 8.24472 68.4668
1041 1 7.80186 7.51788 70.7895
2717 1 5.29139 7.49083 70.1491
244 1 6.17907 9.70585 71.1229
1121 1 7.16388 11.6925 71.0856
484 1 5.44698 11.7106 69.528
7360 1 8.01989 10.102 69.6016
1353 1 10.4465 8.7737 69.263
74 1 10.2861 11.0754 68.8463
1044 1 9.51482 9.47557 71.4588
1921 1 10.8127 11.5946 71.0734
1666 1 12.7045 9.40291 68.6529
3277 1 14.4965 7.80967 67.8757
2638 1 11.952 6.62213 69.5527
2315 1 14.7852 9.5911 69.4837
2716 1 12.2217 9.24546 71.2965
320 1 13.8902 11.3324 71.1738
7657 1 16.2607 10.0445 67.6782
3441 1 18.506 7.1898 71.2882
2644 1 15.9693 10.1215 71.5787
2228 1 17.6596 9.53264 69.9152
4318 1 18.2827 11.7029 71.2836
5346 1 15.9394 11.695 69.6263
4319 1 19.2661 10.2453 67.9198
3444 1 20.0476 9.58745 71.2332
4241 1 21.6752 7.49766 71.0699
2870 1 23.3401 7.27388 69.5524
6075 1 19.58 8.01198 69.1254
3836 1 20.231 11.6829 69.594
5600 1 21.5098 9.38488 68.9958
5822 1 21.8405 11.3239 70.8993
4473 1 23.9669 11.3915 69.3536
851 1 27.5316 8.99824 67.5406
4244 1 23.4706 9.6744 71.0326
5041 1 25.4761 8.14206 70.719
6525 1 25.8884 9.58954 69.0138
5044 1 27.5219 9.58359 71.0697
5121 1 26.0118 11.498 70.8874
3594 1 27.7189 11.5247 69.1399
6961 1 29.3982 9.61875 69.6645
6950 1 31.2263 9.65805 71.4815
5921 1 29.3186 11.4333 71.4422
5911 1 30.957 11.6396 69.6881
6079 1 34.3165 9.30734 67.4817
7441 1 34.7229 9.71397 71.5014
5844 1 33.0352 9.27841 69.7646
4959 1 34.509 11.1487 69.1068
6721 1 32.7931 11.4733 71.0076
7524 1 1.78295 13.0978 71.329
559 1 1.67894 15.0705 69.5014
6561 1 35.7506 13.0625 69.3287
7601 1 -0.0468975 14.7205 71.0578
449 1 3.67574 15.165 71.2867
3747 1 3.50564 13.0282 69.461
324 1 5.40734 13.3342 71.3005
311 1 6.5759 14.2691 68.7826
231 1 4.57304 15.2169 69.2836
1201 1 6.98356 15.024 71.0646
5974 1 8.12806 12.6196 68.804
2393 1 9.73018 12.9 67.1277
1124 1 8.83039 13.1257 71.3013
3267 1 10.8346 15.0835 71.2633
5200 1 10.288 13.1964 69.6101
1281 1 9.20097 15.1547 69.3675
205 1 12.4669 11.7489 69.3879
7440 1 14.3936 13.626 69.8256
2799 1 12.418 13.1897 71.39
2801 1 14.3439 15.62 71.501
2050 1 12.1888 15.2368 69.5587
3658 1 18.1639 14.9699 68.3082
1120 1 16.1377 15.357 69.7463
2724 1 16.3201 13.7631 71.4315
2878 1 17.7967 13.078 69.5375
3601 1 17.9946 15.3991 71.3912
1898 1 20.0056 15.3299 69.8432
4397 1 20.2937 13.4309 71.2517
3598 1 21.6997 13.3685 69.5253
4401 1 21.9977 15.1324 71.3979
3510 1 23.8586 14.9852 69.4385
4324 1 23.9235 13.024 71.1198
6954 1 25.6847 13.0973 69.2596
5271 1 27.4835 13.4815 70.9328
5198 1 25.5414 14.9848 71.2439
3919 1 27.1445 15.1102 69.1335
4622 1 27.4913 12.9999 67.3483
6877 1 29.4314 14.7332 67.0929
7828 1 29.1014 13.1741 69.007
6239 1 31.8359 13.6036 71.2239
5197 1 29.666 14.2986 70.8592
2708 1 31.1321 14.7112 68.9315
798 1 33.7277 15.9469 67.6128
6144 1 32.4713 12.9225 68.9726
6801 1 34.4366 13.3387 71.3921
5274 1 33.6728 14.8699 69.7099
5982 1 35.7626 15.7832 68.858
7493 1 1.47649 16.6694 71.4163
7684 1 2.91692 19.6334 69.3676
867 1 1.16463 17.9168 69.6351
7604 1 3.20265 18.1356 71.3698
481 1 5.038 17.906 69.1202
402 1 1.80362 20.265 71.7666
7120 1 5.3942 16.6917 71.1175
7033 1 6.89983 16.755 69.1784
6957 1 6.68473 18.9629 70.777
3408 1 10.2174 18.6094 66.9296
1204 1 8.99483 17.1634 71.0869
6870 1 10.3375 17.2425 69.2389
2081 1 10.8007 18.7844 70.8897
1036 1 8.45009 18.5911 69.0031
1437 1 12.4957 16.8683 67.4871
2959 1 14.4833 18.5507 67.4877
2004 1 12.2526 17.0102 71.3334
1270 1 12.478 18.6337 69.1929
2881 1 13.9931 18.8868 70.9579
5677 1 14.0963 17.1267 69.6261
4234 1 18.3221 18.9323 67.5128
1745 1 16.4578 18.7675 69.4638
2958 1 16.4163 17.2198 71.4909
2710 1 18.3043 17.2463 69.5955
3681 1 18.4094 18.8422 71.359
2956 1 21.8448 18.4877 67.8249
3604 1 19.8466 16.9155 71.4367
3684 1 20.1366 18.6727 69.565
7825 1 22.0665 16.746 69.6277
3411 1 23.8108 16.9831 71.3886
3678 1 22.0312 18.6426 70.9374
5203 1 23.6997 18.6216 69.3059
3599 1 19.7588 20.6913 67.8336
1436 1 25.6223 18.727 67.6788
4463 1 27.7691 16.9083 67.6877
2370 1 25.783 16.8736 69.6382
6078 1 27.7454 16.3944 71.036
5281 1 25.2867 18.715 70.9481
4786 1 27.2711 18.3914 69.4278
2220 1 29.5155 18.8259 67.245
1356 1 32.4512 16.7046 69.4018
6081 1 29.6111 18.6325 70.8906
5924 1 29.5899 16.47 69.3003
6878 1 31.2519 16.6084 71.3191
4156 1 31.0137 18.7444 68.9443
6804 1 -0.250743 18.5426 71.3567
1427 1 32.8706 18.4463 67.7254
7681 1 35.2725 17.9902 69.3997
3430 1 34.1739 16.7978 71.1319
6881 1 32.896 18.8118 70.3057
7038 1 -0.134867 19.9916 69.6125
5513 1 3.44151 21.7928 68.8348
1996 1 1.00841 18.7671 67.275
1361 1 2.49527 20.4142 67.1631
7039 1 3.4204 22.369 71.4535
7764 1 1.63923 23.8828 68.0878
1275 1 6.56495 23.1568 67.2096
483 1 4.77207 20.1413 67.9434
7809 1 5.41263 22.3653 69.1572
1433 1 6.93645 21.9941 71.0393
2721 1 7.13143 20.5962 69.0377
404 1 4.82706 20.3714 71.3203
4389 1 10.4495 21.9234 67.1885
1670 1 8.08334 21.0472 67.2248
2162 1 10.7034 22.1886 70.9194
1284 1 8.84566 20.3823 70.9543
2161 1 8.95483 22.3464 69.3002
2164 1 10.1609 20.2467 68.7778
3911 1 8.5899 24.4652 67.7453
2715 1 12.7078 20.3284 67.3615
2374 1 14.4096 22.3486 67.3936
2079 1 14.541 20.4464 69.0641
3038 1 12.5856 22.0918 69.2552
2961 1 14.7778 22.1288 70.8159
2084 1 12.4803 20.498 70.9647
1355 1 18.3436 22.9613 67.9021
788 1 16.5736 20.2547 67.6658
2884 1 16.0662 20.4403 71.0359
7743 1 16.278 22.4713 68.9318
2067 1 18.1208 20.6402 69.5418
3761 1 17.821 22.7349 70.9179
1020 1 18.359 24.6311 69.5279
6319 1 21.876 22.3631 67.9399
6786 1 23.5552 20.4298 67.6227
3176 1 20.219 24.5943 67.9756
1420 1 19.8955 22.5508 69.5408
1599 1 20.2443 20.6179 71.1339
476 1 21.8987 20.3382 69.3677
2310 1 22.0892 22.2563 71.0283
2946 1 23.73 20.5083 71.0842
2471 1 27.6097 20.6041 67.6625
2227 1 23.8763 22.4208 69.5684
3764 1 25.5001 22.5355 67.7065
1985 1 27.1949 22.5296 69.2704
5363 1 25.3918 22.1778 71.3402
5284 1 27.4178 20.2646 70.7828
4692 1 25.3782 20.5398 69.5126
6084 1 31.5767 20.545 71.3826
314 1 29.5135 20.4832 68.9905
4712 1 31.1169 22.3321 68.7874
4638 1 29.5713 22.2488 70.6056
3028 1 35.1981 20.1865 67.4075
7041 1 33.038 20.54 68.8049
7761 1 0.222186 22.1934 70.9033
7734 1 34.6898 22.1707 68.5396
6884 1 34.4951 20.4293 70.9447
7037 1 32.9019 22.3122 70.3857
7990 1 1.12156 25.8277 69.5033
725 1 1.56763 27.9141 70.438
6529 1 1.62333 23.8652 71.1048
1584 1 3.65425 24.486 68.796
7844 1 3.85139 28.0118 69.6697
7994 1 6.03539 25.8342 68.4669
7757 1 3.40525 25.9501 70.5091
7755 1 4.32009 26.8631 67.8352
7118 1 4.90719 24.151 70.9483
2158 1 7.03795 26.0763 70.722
2873 1 5.75999 27.9034 70.9898
3837 1 10.7069 23.9567 69.2642
868 1 9.13496 24.3603 70.8502
710 1 7.27833 23.9048 69.5107
1505 1 10.6081 26.1762 71.1612
7895 1 8.19835 26.7828 68.9468
1440 1 10.0265 27.7715 68.9615
1364 1 8.82854 27.8983 70.9815
3041 1 14.6007 24.2622 69.5511
6867 1 12.5516 23.7911 71.0349
2473 1 12.4115 25.832 69.5367
7747 1 14.3806 25.599 71.3288
4148 1 14.674 27.7038 69.7066
1990 1 12.457 27.8666 70.9126
1015 1 18.2439 26.7342 67.7489
2964 1 16.2787 24.4217 71.1489
2472 1 16.4495 26.2338 69.7264
6311 1 18.095 25.7477 71.8027
3044 1 16.2741 27.3594 71.7194
4789 1 18.316 27.5844 69.6836
4080 1 20.0603 26.2357 69.6452
5679 1 23.7245 24.4293 68.0759
5109 1 21.9619 26.1803 68.1175
1354 1 20.0456 24.1118 71.6139
3200 1 21.5706 24.1143 69.8771
7204 1 21.8294 25.6925 71.2737
5364 1 23.8093 24.0657 71.5436
77 1 21.8155 28.0199 69.8594
3118 1 19.7895 27.7014 71.5366
4564 1 23.6211 25.8717 69.8008
5751 1 26.829 24.407 67.3864
7972 1 25.1546 26.1819 67.9575
3835 1 27.057 27.5703 68.1866
2720 1 25.382 24.5605 69.816
5351 1 25.683 25.8993 71.6251
2791 1 27.4536 24.0661 71.3321
5357 1 27.3275 25.9303 69.6218
4640 1 25.5254 27.6558 70.0007
1269 1 29.081 24.4678 68.8391
6164 1 31.1928 24.116 70.4797
6398 1 30.9494 25.751 68.9645
6241 1 29.3359 26.1423 70.9484
6244 1 31.2815 27.4355 70.846
7494 1 33.0617 23.7862 68.1469
7841 1 -0.379335 25.643 71.0971
793 1 34.4976 25.4918 69.3632
5676 1 -0.679083 23.8838 68.821
1516 1 32.7266 25.6825 70.9662
6964 1 35.0192 23.5212 70.8281
6553 1 -0.557182 27.4451 69.25
7914 1 34.5854 27.4553 70.9112
2309 1 0.252962 29.7385 68.754
7338 1 35.7568 31.6848 69.0447
7916 1 2.7848 29.1923 67.9944
7921 1 36.4201 29.3535 70.8754
721 1 1.37735 31.5651 70.9394
2240 1 2.93674 29.7795 71.0845
4074 1 6.49482 28.4118 68.9922
2394 1 3.36917 31.6482 68.9196
5680 1 5.04916 30.4621 70.1042
724 1 5.1743 32.0829 71.3872
1521 1 7.42452 30.0444 71.3177
6557 1 7.15023 31.8145 69.3156
6628 1 10.9882 31.6544 69.2585
1439 1 8.63554 29.8119 69.081
1674 1 10.6085 29.4792 70.6009
1524 1 9.46875 31.393 71.1823
877 1 13.0564 31.4062 67.939
1358 1 12.7481 29.7279 69.3597
3908 1 14.1562 29.6556 71.1588
4797 1 12.3246 31.5619 71.5159
2479 1 14.4882 31.6654 69.8435
1832 1 17.9977 29.2432 67.8971
951 1 16.7688 31.5128 71.3597
7885 1 16.4007 29.1889 70.1646
3921 1 18.3678 29.5466 71.5995
2385 1 18.3425 31.3387 69.8864
3201 1 20.1189 31.7405 71.2821
3924 1 19.9509 29.5318 69.8904
2551 1 21.8016 29.4892 71.5261
3276 1 21.9785 31.6289 69.5323
2312 1 23.7292 29.7503 69.3105
5666 1 23.641 31.1989 71.1915
4233 1 23.9304 27.9535 71.3017
5444 1 27.8574 27.9706 71.6086
7029 1 28.0316 31.0451 71.6443
4724 1 25.5864 30.0542 71.3857
3990 1 25.5747 31.2629 69.3782
3279 1 27.3921 29.3564 69.6809
2216 1 29.6444 27.4192 69.2185
7196 1 29.4835 31.0034 69.027
6324 1 30.9893 31.2719 71.5404
6321 1 29.8324 29.4622 71.0685
5507 1 31.1461 29.5256 68.8961
3840 1 32.8519 27.7435 68.9106
7333 1 32.9245 31.5133 69.465
6855 1 34.4635 29.8112 69.32
7918 1 34.7116 31.6572 71.2258
5441 1 33.0962 29.5903 71.2167
4702 1 1.48784 35.2914 68.0861
1896 1 -0.307728 35.378 69.6875
7201 1 -0.248044 33.613 71.4171
879 1 1.6638 35.5994 70.9399
6560 1 1.27121 33.3394 69.5577
2477 1 5.6771 35.6308 67.7057
7924 1 3.35428 33.8856 70.2396
7195 1 3.94326 35.8627 69.2171
800 1 7.16235 35.5596 69.7066
79 1 5.35766 35.7087 71.2741
715 1 5.70087 33.6926 69.6131
801 1 7.11205 33.326 71.3467
2395 1 9.04874 35.3216 67.9798
3192 1 10.8131 33.8558 67.8939
959 1 11.0672 33.5224 71.3872
2634 1 9.10436 33.6204 69.7058
7019 1 11.1196 35.2133 69.579
804 1 8.97761 35.7796 71.1978
1604 1 12.6461 35.0276 71.604
7264 1 12.9557 33.1287 69.7053
5661 1 14.4001 35.4755 69.8533
7836 1 14.5277 33.3822 71.4125
7513 1 16.3548 33.2858 69.926
2403 1 16.2923 35.1499 71.2865
4791 1 18.1881 33.3442 71.604
2559 1 16.0957 35.2973 68.2544
4078 1 18.1044 35.2607 69.7163
4714 1 20.1982 33.5791 69.2748
5521 1 24.124 33.1198 69.7522
1111 1 22.1148 35.1086 69.2909
4004 1 24.2635 35.007 71.5247
4001 1 21.8948 33.4192 71.3699
3204 1 20.2079 34.9297 71.2668
4804 1 27.7851 35.0467 71.3072
3994 1 25.9163 34.8095 69.4619
4077 1 27.7148 32.8783 69.2677
4801 1 25.9982 32.645 71.2101
2700 1 25.5978 32.9604 67.2811
7278 1 27.1699 34.9936 67.6876
5683 1 30.8624 35.0173 71.2238
3590 1 31.214 33.4611 69.1723
6362 1 2.98037 34.4157 54.053
5833 1 30.1589 8.21145 54.7855
5103 1 29.7422 34.0838 54.069
643 1 4.95551 26.1855 72.4233
1362 1 6.92953 24.3866 72.4099
5336 1 20.7626 1.14947 54.2218
1974 1 0.744224 1.73841 54.3109
3671 1 26.7815 4.24463 54.3519
698 1 13.0541 23.1716 54.0621
1574 1 32.6744 16.1041 54.2745
2304 1 24.0086 23.409 53.9189
2066 1 14.6374 13.1912 53.7692
4211 1 28.1729 31.9918 54.0454
3348 1 18.3705 0.82955 53.7499
6683 1 15.8659 24.0628 54.3651
4229 1 24.722 29.2096 53.5517
7909 1 33.4056 2.52021 53.8097
1835 1 19.4225 31.4814 53.9878
