ITEM: TIMESTEP
300000
ITEM: NUMBER OF ATOMS
8000
ITEM: BOX BOUNDS pp pp pp
-5.8674182434459254e-01 3.6136740824347577e+01
-5.8674182434459254e-01 3.6136740824347577e+01
-1.1734836486891851e+00 7.2273481648695153e+01
ITEM: ATOMS id type x y z
7286 1 1.52117 0.0480028 2.67552
7365 1 1.54943 1.84667 1.03735
7288 1 3.14296 -0.35705 1.16194
7367 1 3.1744 1.65994 2.79675
6488 1 -0.276449 -0.508072 0.936318
4562 1 23.4984 21.6582 -1.14625
165 1 5.21026 1.53365 1.06229
86 1 5.31282 -0.450782 2.49632
88 1 6.97764 -0.476946 0.634228
167 1 6.87047 1.83318 2.99137
1682 1 12.5719 -0.382349 -1.12705
2324 1 16.4165 29.5932 -0.903817
965 1 8.71986 1.43941 0.983653
888 1 10.9517 -0.32704 0.331231
967 1 10.7155 1.36297 2.58327
886 1 8.7008 -0.401834 2.71456
968 1 10.7744 3.27725 1.06115
966 1 8.71621 3.17029 2.74715
802 1 8.54024 32.6688 -0.65395
1686 1 12.4693 -0.261099 2.40794
1765 1 12.5201 1.55638 0.847951
1767 1 14.1281 1.56166 2.767
1688 1 14.1578 -0.24263 0.969653
4631 1 7.09749 16.5761 -0.876312
1203 1 10.5603 12.7726 -0.673519
2486 1 15.9683 -0.328401 2.8387
2565 1 16.1576 1.46843 1.09443
2488 1 17.976 -0.261956 0.762147
2567 1 18.0789 1.7593 2.55284
6563 1 -0.0776016 2.02157 -0.980819
4965 1 28.4614 1.27039 -0.647157
7842 1 3.3525 26.9899 -0.829931
3365 1 19.7031 2.08188 0.693161
3286 1 19.503 -0.517181 2.81121
3288 1 21.2344 0.157427 0.728593
3367 1 21.411 1.6559 2.44816
4165 1 23.1797 1.69491 0.272124
4086 1 23.3789 0.0580909 2.17861
2483 1 17.693 34.7554 -0.894248
3366 1 19.6065 3.61992 2.74535
5699 1 32.449 34.6497 13.4978
2723 1 17.4215 9.30992 -0.942096
4169 1 25.2596 1.93345 2.61824
4167 1 27.0078 1.65859 1.43662
4886 1 26.9815 -0.429195 2.69036
4088 1 25.3582 -0.290932 0.711416
1122 1 8.86541 10.6536 -0.972083
644 1 5.06468 25.2665 -0.493972
4972 1 29.0689 1.52679 2.8009
4967 1 30.5224 1.49752 0.949148
5686 1 30.8975 -0.103803 2.61836
5599 1 28.5421 3.11147 0.612373
2319 1 31.053 3.59685 2.34254
4888 1 28.8521 -0.354204 0.779971
643 1 6.66823 23.6169 -0.790945
6403 1 0.100075 30.7953 -0.675793
6567 1 -0.520797 1.4424 2.52064
5767 1 32.6924 1.74462 1.95128
5688 1 32.6837 -0.277817 0.961159
6565 1 34.7571 1.61178 0.396172
6486 1 34.4008 -0.0805642 2.58663
6566 1 34.2081 3.37075 2.3413
7366 1 1.51038 3.80976 2.37528
7445 1 1.44267 5.50841 0.602731
7447 1 3.53548 5.37269 2.84988
7368 1 3.5113 4.1195 0.712289
7446 1 1.71057 7.04623 2.55266
3523 1 21.7045 9.26278 -0.744649
7448 1 3.48846 6.76332 1.0425
6497 1 34.4356 32.6141 13.3084
1522 1 8.88371 29.0546 -0.822685
168 1 6.66853 3.40618 0.872023
166 1 5.14137 3.56365 2.68961
245 1 5.44963 5.50393 0.768045
247 1 6.78013 5.1842 3.03674
248 1 7.23043 7.04767 1.24112
246 1 5.19417 7.0257 2.94779
6501 1 34.3176 34.5385 14.9966
1603 1 14.094 30.5144 -1.00674
1045 1 8.63553 4.84511 0.939245
1047 1 9.90472 5.25683 2.73223
1046 1 8.65447 7.40275 2.97475
1048 1 10.3377 7.09743 1.10937
6162 1 32.853 19.7901 -0.723964
1042 1 8.96127 7.04987 -0.788773
7043 1 1.75859 24.9896 -1.04461
1768 1 14.182 3.34902 1.23205
1766 1 12.515 3.49441 2.96525
1849 1 12.2847 5.27249 1.32869
1847 1 14.7237 5.20049 3.02456
1848 1 14.2504 7.00016 1.14338
1846 1 12.2991 7.34869 2.83698
1202 1 8.88431 14.6899 -0.917283
5768 1 34.6265 3.77199 -0.923344
3683 1 21.7429 16.16 -0.599867
2568 1 17.8612 3.80528 1.05762
2566 1 16.2375 3.47572 2.73319
2646 1 15.7874 7.56491 3.00018
2645 1 16.0211 5.56713 1.09682
2647 1 17.8304 5.37356 2.8375
3445 1 19.4019 5.59907 0.906931
2648 1 17.6501 7.73912 0.8264
3446 1 19.3587 7.22732 2.85756
4242 1 23.2002 7.07507 -0.54043
7362 1 1.70585 3.67258 -0.777757
4166 1 22.9607 3.66226 2.51046
3368 1 21.5545 3.75118 0.315823
3447 1 21.3903 5.66024 2.88693
4245 1 23.4694 5.32571 0.867024
4246 1 23.1992 7.05469 2.84478
3448 1 21.5468 7.33183 0.93689
4082 1 23.2877 -0.451239 -0.873831
4163 1 25.2743 1.44855 -0.714844
4643 1 24.8442 23.3726 -0.66523
322 1 5.39198 10.9748 -0.482178
4168 1 25.3456 3.37159 0.697457
4966 1 26.9927 3.62693 2.48676
7042 1 34.7487 25.3323 -0.883466
4962 1 26.7935 5.10957 0.707472
5046 1 27.1368 6.62136 2.61478
4247 1 25.2836 7.14246 0.759712
5045 1 24.8958 5.50129 2.52302
403 1 7.30479 12.5497 -0.733374
1443 1 12.8333 21.6151 -0.589812
4323 1 25.2193 8.96437 -0.812932
5047 1 28.9824 5.02497 2.61283
5845 1 30.8444 5.36093 0.518346
5048 1 28.9011 6.72825 0.989038
5849 1 30.5915 7.14086 2.42216
4483 1 25.3793 16.44 -0.724159
6568 1 -0.333146 3.55002 0.993477
6647 1 -0.570793 5.3877 2.56655
5847 1 32.7638 3.81827 0.688833
5846 1 32.5511 5.53521 2.27671
6645 1 34.3945 5.44183 0.653828
5848 1 32.7641 7.17296 0.454248
6648 1 36.0388 7.18026 0.553779
6646 1 34.15 7.52047 2.63484
7525 1 1.69233 8.88065 0.653739
7526 1 1.28312 11.0211 2.48893
7527 1 2.9509 9.218 2.51564
7528 1 3.22203 11.4032 0.590964
1523 1 10.111 27.2038 -1.11702
3922 1 19.6568 28.9935 -1.08325
325 1 5.43993 9.03013 1.03458
327 1 7.14166 9.29068 3.00031
328 1 7.45106 10.9895 1.07798
326 1 5.10386 10.8462 2.38141
5603 1 32.6903 31.1239 -0.699373
2323 1 14.1129 27.3587 -0.979896
1125 1 8.52757 9.07992 0.96495
1127 1 10.697 8.98313 2.86275
1126 1 8.8607 10.7605 2.87419
1128 1 10.2647 11.0754 1.13719
5351 1 30.7803 21.75 -0.556046
243 1 7.10062 5.35469 -0.723748
1925 1 12.5101 8.88411 1.11611
1926 1 12.6136 10.9212 2.54095
1927 1 14.2331 9.09705 2.8482
1928 1 14.3202 11.1069 0.757337
2726 1 16.0286 11.2748 2.49584
6878 1 30.56 14.3346 -0.779615
1923 1 14.03 8.96767 -0.706797
7602 1 1.90641 14.8495 -1.19645
2725 1 15.6752 9.24887 0.903866
2727 1 17.3579 8.91396 2.98307
2728 1 17.5624 10.9047 0.669723
3525 1 19.4517 9.21358 0.719598
3526 1 19.2495 10.797 2.44243
2802 1 16.1253 14.6446 -1.16528
7283 1 3.14224 34.6915 -0.472811
3763 1 21.6522 20.3024 -1.04582
4403 1 25.3638 12.4905 -1.02314
4325 1 23.265 9.22092 1.28026
4326 1 23.4118 10.5131 2.93471
3528 1 21.626 10.8527 0.797755
3527 1 21.1297 8.91936 2.59434
4327 1 25.1312 8.69901 2.54258
4328 1 25.2629 10.5702 1.04356
5126 1 26.9907 10.5699 2.68673
5125 1 26.9798 8.69625 0.993913
1922 1 12.269 10.6195 -0.734989
5624 1 32.7992 32.5028 14.9497
5127 1 28.8149 8.84499 2.55805
5925 1 30.1534 9.1971 0.791164
6003 1 28.7878 11.0488 0.762778
5926 1 30.4195 10.6303 2.70996
6482 1 34.9518 -0.373984 -1.06621
5281 1 26.7547 14.4749 -0.883071
6728 1 -0.0682041 10.7712 0.724318
6727 1 -0.240114 8.85822 2.3922
1845 1 12.5862 3.49639 -0.493164
6725 1 34.7015 9.38964 0.882499
5927 1 32.2651 9.19178 2.57889
5928 1 31.9581 10.5693 0.349159
6726 1 34.5729 10.3361 2.91369
6803 1 -0.285383 13.016 -0.974828
7605 1 1.26785 12.8577 0.760771
7606 1 1.69195 14.4176 2.63916
7607 1 3.31902 12.7719 2.62512
7608 1 3.48697 14.4645 0.684596
405 1 5.62422 12.9258 1.18629
407 1 7.27184 12.9697 2.84745
406 1 5.02124 14.9156 2.59615
408 1 7.09159 14.7112 0.96604
2963 1 15.8888 18.0964 -1.15205
7522 1 1.50416 10.6506 -0.920778
1442 1 8.54183 24.7418 -0.98485
1205 1 8.94448 13.1569 0.723505
1207 1 10.128 12.7256 2.65908
1206 1 8.82019 15.1017 2.44433
1208 1 10.7028 14.5383 0.924043
2005 1 12.5067 12.7515 1.08723
2007 1 14.3232 13.2035 2.55959
2008 1 14.2355 14.6089 0.405176
6641 1 12.6652 15.0075 2.75472
2805 1 16.1156 12.996 0.763084
7202 1 1.66701 32.9724 -0.859847
2806 1 16.2633 15.0327 2.39507
2807 1 17.989 12.6963 2.24054
2808 1 17.8181 14.6162 0.427182
3606 1 19.3835 14.6395 2.47687
3605 1 19.7577 12.3593 0.679027
3362 1 19.3138 4.04537 -0.782814
5282 1 27.1785 18.1474 -0.611275
3607 1 21.4554 12.5857 2.30067
3608 1 22.0139 13.8715 0.120293
4405 1 23.4687 12.4225 1.03377
4406 1 23.1009 14.0297 2.65948
963 1 10.4256 1.59983 -0.875552
3603 1 21.2211 11.919 -1.1467
5205 1 26.9816 12.4299 1.00633
5206 1 26.9521 14.2721 2.88313
4408 1 25.3478 14.1731 1.09352
4407 1 25.1613 12.3156 2.79042
4899 1 29.0937 34.3656 13.0121
1763 1 14.1534 1.43515 -0.893082
6005 1 30.7262 12.3283 1.01055
6006 1 30.6299 14.5529 2.34977
5207 1 29.0021 12.691 2.54305
6002 1 28.7506 14.4888 0.684751
6807 1 36.1132 12.3796 2.74435
6808 1 36.0301 14.3038 0.797719
6008 1 32.6166 14.4565 0.666193
6007 1 32.8669 12.0374 2.07994
6805 1 34.8335 12.2289 0.893291
6806 1 34.574 14.3985 2.75272
6802 1 34.6178 14.3588 -0.715755
5618 1 31.0009 32.829 13.2161
7685 1 1.67472 16.1777 0.727139
7686 1 1.83928 18.4891 2.36126
6887 1 -0.140387 15.8578 2.2841
7687 1 3.13616 16.4044 2.46642
7688 1 3.41459 18.0699 0.770294
6888 1 -0.301915 17.8414 0.665509
2962 1 16.0124 21.8749 -0.8458
5701 1 31.1364 34.4332 15.2379
3442 1 19.2089 7.09047 -1.19629
485 1 5.27681 16.3305 0.878064
487 1 7.00925 16.4019 2.73193
488 1 6.91796 18.2479 1.02681
486 1 5.189 17.7348 2.52281
1286 1 8.77521 17.8111 2.88563
1285 1 8.84727 16.7824 0.875817
1288 1 10.5813 18.0125 0.619755
1287 1 10.7622 16.3298 2.8866
561 1 32.1577 12.702 -0.957928
1367 1 10.2183 19.7291 2.5637
4824 1 29.1032 32.9044 15.1166
2 1 5.06515 32.5157 -0.895634
2085 1 12.8078 16.5457 0.916035
2086 1 12.127 18.2033 2.63875
2087 1 14.2987 16.813 2.80357
2088 1 14.2139 18.4405 0.750465
2167 1 14.512 20.1399 3.05235
2886 1 16.2983 18.3234 2.54472
2885 1 15.9514 16.7452 0.712614
2887 1 17.9749 16.5826 2.51089
3685 1 17.9091 18.1583 0.564502
3602 1 19.6124 16.2312 0.511331
3686 1 19.9777 18.0126 2.44543
6483 1 -0.124986 34.492 -1.15695
5442 1 26.9425 25.3953 -0.802269
7363 1 4.85196 0.0995777 -0.981323
4485 1 23.6849 16.092 0.863266
3687 1 21.5791 15.9819 2.2179
3688 1 21.1739 18.2885 0.418816
4486 1 23.0374 18.0815 1.91404
4482 1 23.3072 18.1408 -0.616933
162 1 3.3184 1.64822 -0.192605
242 1 5.20196 7.16498 -0.468521
5283 1 29.0013 16.2237 -1.19189
4488 1 25.0632 18.2938 0.950276
5285 1 26.827 16.5653 1.19513
4487 1 25.2647 16.4356 2.7606
5286 1 27.0046 18.115 2.85909
5288 1 28.9438 18.2557 0.760184
6085 1 30.3826 16.1631 0.830895
6086 1 30.4918 17.9938 2.71794
5287 1 28.6976 16.4867 2.70286
562 1 5.09142 21.632 -0.881641
6882 1 34.4449 17.8097 -0.819814
6087 1 32.7906 15.8902 2.43846
6088 1 32.7775 17.7677 1.23562
6885 1 34.5846 16.0968 1.00549
6967 1 35.0153 18.0335 2.55558
2485 1 16.1215 -0.09142 -0.799439
1842 1 12.4496 6.87952 -0.568726
2243 1 14.5353 23.7111 -0.570354
6886 1 0.966411 20.0406 0.35517
7765 1 3.60875 19.8293 2.78011
6965 1 1.67807 21.5676 2.4052
7768 1 3.53439 21.6478 0.717015
6968 1 -0.393032 22.002 0.606302
1043 1 10.8728 5.21085 -0.583258
565 1 5.44363 19.9249 0.912203
567 1 7.03449 20.0184 2.90296
566 1 5.27044 21.6708 2.69038
568 1 6.92905 21.744 0.99138
647 1 6.79673 23.4002 3.04765
7282 1 1.48734 -0.234374 -0.652735
4183 1 25.8083 1.86577 16.944
1365 1 8.59566 20.1214 0.867583
1368 1 10.6007 22.2298 0.576365
1366 1 8.76874 21.8554 2.86898
1445 1 8.72088 23.4449 1.00941
6323 1 32.4591 27.4912 -0.716721
5042 1 27.1018 7.03158 -0.690767
2165 1 12.4023 20.2525 1.26103
2166 1 12.3555 22.3361 2.29885
2168 1 14.4982 22.1085 1.29871
2245 1 12.526 23.7831 0.423986
3045 1 16.6252 23.8096 0.670619
3601 1 19.888 14.123 -0.970158
2965 1 16.4975 19.9948 0.73426
2967 1 18.5167 19.915 2.19719
2966 1 16.4758 21.7669 2.64295
2968 1 17.8776 21.7719 0.352803
3845 1 19.7387 23.6429 0.494384
3766 1 19.5473 21.8487 2.05992
1843 1 14.3555 5.39662 -0.617648
1283 1 10.6823 16.2383 -0.846171
3202 1 19.5442 33.3373 -0.952553
5357 1 27.3261 21.7119 -0.589784
3765 1 19.4845 20.2087 0.19678
3767 1 21.3216 20.1362 2.17224
4565 1 22.9611 20.1845 0.669899
3768 1 21.3515 21.7768 0.438816
4566 1 23.1607 21.8295 2.34925
3847 1 21.2313 23.6771 2.52332
5365 1 27.0765 19.9335 0.913204
4567 1 25.0482 19.9168 2.56815
4568 1 25.0363 21.4984 0.789395
5366 1 26.9239 21.7577 2.7238
4647 1 25.1841 23.5332 2.21266
3463 1 23.5916 7.17293 16.8023
2002 1 12.1059 14.4987 -1.20059
2082 1 12.4665 18.454 -0.934973
6165 1 30.9657 19.7863 1.225
5367 1 28.8505 19.9722 2.46426
5368 1 29.1743 21.7219 1.02779
6166 1 30.833 21.9325 2.60805
6245 1 30.764 23.9172 0.541684
5447 1 29.4055 23.9375 2.49172
7443 1 4.98159 3.38235 -1.09587
6663 1 35.9022 5.34038 16.844
7766 1 -0.328574 19.9918 2.4113
3829 1 34.9902 19.508 0.736919
6167 1 33.0364 19.8473 2.41286
6168 1 32.6584 21.921 0.835213
6966 1 34.6558 21.6953 2.6769
6161 1 28.9781 20.1876 -0.819342
185 1 4.81735 0.0488745 16.9781
2743 1 17.8087 8.54301 16.7277
4104 1 25.8574 -0.0313719 15.1666
1064 1 12.5448 7.09337 16.648
7845 1 1.92527 23.387 0.808401
2903 1 18.376 16.3431 17.1111
5208 1 28.3803 12.609 -0.89798
7846 1 1.76135 25.2538 2.74365
7925 1 2.08567 27.2121 1.47489
7048 1 0.154679 24.985 0.641745
7848 1 3.34713 25.2111 1.30102
7927 1 3.98986 27.4616 2.82836
7127 1 -0.236111 27.3539 2.56853
646 1 3.34945 23.2396 2.93028
5762 1 30.8503 3.64379 -0.960209
4901 1 27.203 34.5496 15.0362
962 1 8.98568 3.63164 -0.908112
645 1 5.12752 23.5308 0.922056
1448 1 7.01053 24.9407 0.912073
7923 1 5.43525 27.3028 1.03513
727 1 6.82949 27.4048 2.89535
648 1 5.51519 25.3766 2.70913
1123 1 10.7092 8.73828 -0.668338
4818 1 27.029 32.8042 13.5723
1447 1 10.3647 23.5464 2.91763
2325 1 10.6687 25.1776 0.922412
1446 1 8.67795 25.3747 2.58151
1527 1 10.2837 27.4046 3.05056
1525 1 8.50246 26.9061 0.807173
4822 1 25.1219 32.8684 15.4407
4503 1 25.4864 15.8643 17.135
7683 1 3.79412 16.2309 -0.980103
2247 1 14.2265 23.7355 2.73424
4903 1 29.3591 34.7301 16.9217
2246 1 12.5743 25.3647 2.50218
2248 1 14.2073 25.6852 0.848653
807 1 11.9833 26.9728 0.751597
2327 1 14.0323 27.4678 2.39904
6243 1 32.6808 23.4599 -1.2159
3047 1 17.7744 23.6347 2.56771
3046 1 16.1609 25.5883 2.45953
3048 1 17.9873 25.6207 0.931243
3127 1 17.7616 27.1862 2.59079
3125 1 16.2761 27.4513 0.710686
3925 1 19.6864 27.3953 0.629273
4968 1 30.8092 -0.217666 -1.00888
7203 1 3.1876 30.9463 -0.886799
3846 1 19.8802 25.6554 2.38985
4642 1 23.2017 23.5255 0.634119
3848 1 21.5568 25.5547 0.845213
4725 1 23.1852 27.4352 0.675034
4646 1 23.3792 25.3096 2.39933
3927 1 21.4289 27.4025 2.78596
2742 1 15.8034 10.6635 16.6586
5445 1 26.9533 23.5482 0.815365
4648 1 24.8134 25.5522 0.610443
5446 1 26.8296 25.4101 2.52003
4727 1 24.9336 27.233 2.4598
5525 1 27.1194 27.2038 0.772358
7123 1 0.421602 27.358 -0.288081
5448 1 29.0037 25.4268 1.00169
6246 1 31.0222 25.3912 2.54813
5527 1 29.0588 27.4994 2.46663
6325 1 30.7049 27.1247 0.771177
7523 1 3.62516 8.91367 -0.794887
7850 1 0.0199289 23.3132 2.72138
6247 1 32.7015 23.6346 2.42386
7045 1 34.8379 23.919 1.15432
6248 1 32.8424 25.3533 0.580442
6327 1 32.4656 27.4989 2.13889
7046 1 34.9903 25.6725 2.37883
7125 1 34.8296 26.9799 0.536377
4263 1 25.1682 5.38396 16.7918
7926 1 1.93385 29.0755 2.95934
7205 1 1.73047 31.0797 0.888019
6407 1 -0.402292 31.0395 2.58826
7207 1 3.35646 30.8371 2.80414
7928 1 3.49227 28.9801 1.1649
7128 1 -0.0161287 29.4202 1.37395
6822 1 34.6671 14.529 16.8952
728 1 7.07782 29.2931 0.728404
7 1 6.94376 30.8192 2.45699
5 1 5.07595 30.9365 0.784848
726 1 5.22156 29.4155 2.87348
4099 1 25.4242 34.7259 13.3642
722 1 4.8575 28.6906 -0.685804
1526 1 8.52334 28.8604 2.34874
1528 1 10.8459 29.1874 0.603606
3 1 8.96305 30.9373 0.88036
805 1 10.5758 30.6675 2.77367
1609 1 12.21 29.2539 2.68607
1605 1 12.2023 31.1115 0.894439
2328 1 14.1296 28.8853 0.857228
1607 1 14.2599 30.9255 2.60122
3703 1 21.622 17.0272 17.1922
2405 1 16.0629 31.1271 0.739425
3126 1 15.8802 29.1225 2.51127
3128 1 17.8209 29.1852 1.18242
2407 1 17.6464 31.3076 2.38117
3926 1 19.8409 29.3238 2.44339
3443 1 21.0449 5.67546 -0.830667
4343 1 25.546 9.02555 17.1
3205 1 19.9069 31.0982 0.745276
3928 1 21.5073 29.209 0.938799
3207 1 21.8913 31.2004 2.41105
4726 1 23.3887 29.3253 2.19455
4005 1 23.4173 31.166 0.23536
7122 1 34.6997 29.2249 -0.205244
5943 1 32.5684 8.80936 17.0966
4728 1 25.1769 29.4589 0.525256
5526 1 26.9183 28.9504 2.28403
4007 1 25.4531 31.0699 2.36371
4805 1 27.2928 30.8518 0.307468
4807 1 28.7306 31.1149 2.28666
5528 1 29.3603 29.1627 0.90917
6326 1 30.7285 29.1131 2.82272
5605 1 30.3779 31.1533 0.475466
5302 1 27.0009 17.9237 17.0168
5607 1 32.7728 31.0379 2.74812
6328 1 32.1212 29.4779 0.808099
7126 1 34.2773 29.2228 2.42251
6405 1 34.7771 31.281 0.978789
3299 1 21.7927 34.8645 13.5484
4101 1 23.7306 34.9361 15.4082
7285 1 1.47846 34.6589 1.33873
7206 1 1.48199 32.7479 2.93962
7208 1 3.33894 32.5703 1.19102
7287 1 3.45319 34.5903 2.69994
6408 1 -0.270537 32.9367 0.870756
1942 1 12.7032 10.6283 16.7943
5782 1 31.1395 3.68046 16.9097
87 1 7.17003 34.5148 2.51917
85 1 5.12211 34.3845 0.726217
8 1 6.90567 32.6808 0.968572
6 1 5.31508 32.776 2.61121
887 1 10.6545 34.5235 2.5433
806 1 8.86812 32.6912 2.32583
885 1 8.8137 34.5029 0.856273
808 1 10.703 32.6171 0.470252
4563 1 25.6738 19.6975 -0.746268
3303 1 21.8212 35.0668 16.9129
1685 1 12.2731 34.2249 0.791068
1606 1 12.4812 32.8417 2.84749
1608 1 14.1232 32.8186 0.679811
1687 1 14.1572 34.5579 2.54203
5142 1 27.1997 10.8458 16.9595
882 1 9.02921 -0.456347 -0.87138
2406 1 15.9559 32.5882 2.76361
2402 1 16.1595 34.4524 0.900765
2487 1 17.88 34.5475 2.45038
2408 1 18.1263 32.7736 0.656772
3285 1 20.14 34.8205 0.961288
1943 1 14.2156 8.80148 16.8466
5862 1 30.928 6.98375 16.873
3206 1 19.4147 32.7027 2.56361
3287 1 21.4684 34.0517 2.73573
3208 1 21.4405 32.8668 0.377548
4006 1 23.7974 32.6169 2.42195
4085 1 23.0975 34.6507 0.92621
1223 1 10.5906 8.80224 16.6267
3224 1 21.5318 32.9901 15.1624
2083 1 14.3729 16.4969 -1.09769
4008 1 25.2016 32.8456 0.262919
4885 1 26.8763 34.5144 0.427018
4806 1 27.0882 32.8717 2.23878
4087 1 25.0834 34.5847 1.96226
4808 1 28.7926 33.1896 0.736028
4887 1 28.6269 34.815 2.39388
5685 1 30.6905 34.6403 0.677906
5606 1 30.9584 32.5565 2.78643
5702 1 30.7708 0.0770859 17.1142
6487 1 -0.417621 34.8866 2.91367
5608 1 32.6091 32.8463 0.810692
5687 1 32.6903 34.6147 2.23458
6485 1 34.7039 34.7056 0.945128
6406 1 34.359 32.695 2.78129
7290 1 1.57262 -0.00219002 6.24936
7369 1 1.08198 2.0885 4.3774
7292 1 3.4303 -0.171739 4.43031
7371 1 3.38697 1.59867 6.10364
7373 1 1.4033 1.70301 7.82982
6576 1 -0.426497 3.60853 7.59855
7370 1 1.29011 3.67681 6.02585
90 1 5.17682 -0.288678 6.06879
169 1 5.16947 1.76875 4.57875
171 1 7.27673 1.48256 6.48234
92 1 7.10716 -0.156077 4.52608
173 1 5.34092 1.67897 7.80922
96 1 7.06956 -0.32139 8.26945
969 1 8.95567 1.84985 4.59676
971 1 10.5733 1.70465 6.30372
890 1 9.04563 -0.143479 6.48938
892 1 10.534 -0.276026 4.23012
970 1 8.95226 3.56233 6.33608
1769 1 12.6747 1.85647 4.76169
1692 1 14.4132 -0.19547 4.81717
1771 1 14.2135 1.68085 6.37577
891 1 12.0452 -0.396539 5.99974
1773 1 12.4229 1.12201 7.94653
1853 1 12.6167 3.52716 6.54341
2569 1 16.0393 1.68465 4.47423
2490 1 16.0977 -0.283748 6.13776
2571 1 18.075 1.54836 6.44441
2492 1 17.8144 -0.0625024 4.43088
3369 1 19.952 1.68944 3.94338
2570 1 16.0962 3.10555 6.30647
2496 1 17.7507 -0.377641 8.14491
2576 1 18.0305 3.35283 8.12163
2573 1 15.9444 1.33148 8.14393
3373 1 19.7813 1.26369 8.0162
3290 1 19.4834 -0.138665 6.1824
3292 1 21.7043 -0.370604 4.06449
4170 1 23.2306 1.40303 4.28191
3371 1 21.2246 1.37721 6.16481
3296 1 21.5787 -0.15947 8.23783
4090 1 23.4048 -0.0999872 6.24354
3376 1 21.6905 3.16551 7.603
4173 1 23.3078 1.51065 7.959
4171 1 25.4747 1.76521 5.7422
4969 1 27.0363 1.61816 4.05852
4092 1 25.0592 -0.582605 3.90011
4973 1 26.9967 1.41843 7.82101
4172 1 25.1119 3.62517 4.13763
4970 1 27.2372 3.25482 5.8389
4096 1 25.293 3.2937 7.84221
4892 1 28.7087 -0.607426 4.13425
4971 1 28.8175 1.46551 5.99404
5769 1 30.7072 1.55521 4.43086
5690 1 30.7995 -0.270511 6.07515
5766 1 29.0703 3.30128 4.22058
4896 1 28.9541 -0.39797 7.75572
6492 1 36.2048 -0.0415792 4.44704
6571 1 -0.49341 1.82354 5.77839
6496 1 36.0567 -0.0302963 7.83862
5692 1 32.6387 -0.155755 4.31558
5771 1 32.5568 1.70481 5.98815
6490 1 34.1909 -0.101093 6.22294
6569 1 34.4022 1.57229 4.35804
7372 1 3.16149 3.41245 4.64664
7449 1 1.26514 5.07885 4.31802
7450 1 1.26865 7.04213 6.17429
7451 1 3.17001 5.55159 6.15884
7453 1 1.24447 5.24783 8.08094
6651 1 35.9372 5.26411 5.89986
7452 1 3.18839 7.55747 4.22731
6652 1 -0.219141 7.21048 4.33407
7376 1 3.03263 3.47588 8.09549
172 1 6.92476 3.5269 4.77024
170 1 4.75656 3.63049 6.54326
251 1 6.62862 5.79147 6.26962
249 1 4.9702 4.92392 4.86182
250 1 4.94698 7.44131 5.93957
252 1 6.92394 7.45684 4.51521
256 1 6.60418 7.25154 8.06572
972 1 10.7412 3.99719 4.52049
1049 1 8.53396 5.41411 4.56242
1051 1 10.8893 5.35646 6.50521
1050 1 8.81992 7.29368 6.46662
1052 1 10.6199 7.03928 4.81856
1056 1 10.5563 7.13201 7.95311
1772 1 14.2274 3.61671 4.66192
1770 1 12.6596 5.70679 4.49525
1851 1 14.3154 5.41443 6.53236
1852 1 14.3848 7.35905 4.86813
1850 1 12.5496 7.45852 6.32475
1856 1 14.4318 7.12266 8.19694
1135 1 12.5851 5.5177 8.18067
2572 1 17.7814 3.51116 4.63364
2650 1 16.3964 7.11885 6.61631
2649 1 16.2101 5.37737 5.05122
2651 1 18.0557 5.24182 6.71066
2652 1 17.9852 7.00195 4.74249
2656 1 18.0075 7.21677 8.69943
2653 1 15.895 5.17619 8.12901
4176 1 23.5367 3.12043 5.97285
3370 1 19.6753 3.23499 6.35979
3449 1 19.7468 5.42371 4.46108
3450 1 19.4626 7.25493 6.76901
3372 1 21.3933 3.64967 4.75904
3451 1 21.3138 5.34964 6.27195
4249 1 23.1928 5.39654 4.75067
3452 1 21.5432 7.36603 4.76412
4250 1 23.5347 7.0929 6.34274
4253 1 23.3615 5.13749 7.91128
3453 1 19.5229 5.06756 8.45999
4251 1 25.1621 4.89733 6.01997
5049 1 27.166 5.20506 4.53274
5050 1 26.8426 6.78996 5.99657
4252 1 25.2335 7.08012 4.72881
5053 1 26.8874 5.09351 7.89347
4256 1 25.3047 6.79321 7.72252
5770 1 30.7666 3.51537 6.10347
5051 1 29.0206 5.42633 6.38502
4321 1 30.8613 5.33588 4.18455
5850 1 30.6319 6.91655 5.75448
5052 1 28.9361 6.90592 4.26107
4976 1 28.5408 3.21769 7.91382
5056 1 29.3332 7.22518 7.69871
6570 1 34.2658 3.41734 5.79578
5772 1 32.635 3.53887 4.03513
6572 1 36.142 3.6663 4.13795
5851 1 32.4017 5.38856 6.10057
6649 1 34.3228 5.4952 3.94356
5852 1 32.5482 7.13071 4.16986
6650 1 34.443 7.22647 5.8566
6653 1 34.2395 5.44537 7.61093
7529 1 1.17085 9.17332 4.39837
7530 1 1.2326 10.9191 6.16135
7531 1 3.04476 9.12858 6.11397
6731 1 36.1478 8.97031 6.54738
7533 1 1.42441 8.83874 7.63133
7532 1 2.86035 10.8712 4.19506
7536 1 3.07604 10.9709 7.81581
6732 1 -0.465149 10.5722 4.44613
329 1 5.16666 9.20759 4.10097
331 1 6.92216 9.12159 6.25276
332 1 6.68078 11.1331 4.38841
330 1 4.9429 10.901 6.16461
333 1 4.69345 9.20533 8.03161
336 1 6.76491 11.1192 7.90271
1129 1 8.90133 8.91281 4.59498
1131 1 10.8154 9.08374 6.44986
1130 1 8.92017 10.9738 6.37704
1132 1 10.6542 10.9442 4.19825
1133 1 9.04269 9.15903 8.20487
5604 1 10.4592 11.3907 7.86817
1929 1 12.4019 9.13976 4.60439
1931 1 14.0687 9.35019 6.45952
1932 1 14.1329 11.3935 4.40358
1930 1 12.491 11.0059 6.58642
2730 1 16.1144 10.7485 6.51035
2729 1 16.142 9.00824 4.89501
2731 1 17.7927 9.01775 6.46599
2732 1 17.6902 11.0296 4.59909
3529 1 19.5175 9.08336 4.40844
2736 1 17.6896 10.9773 7.95633
2733 1 16.0287 9.02414 8.22148
3530 1 19.6513 10.9414 6.18062
3531 1 21.4274 9.41701 6.40733
4329 1 23.632 8.93074 4.4907
4330 1 23.5154 10.9255 5.8915
3532 1 21.4696 10.5762 4.34873
3536 1 21.4806 10.8816 8.04074
3533 1 19.4722 9.26395 8.20585
4331 1 25.2862 9.07297 6.24564
5129 1 27.0021 8.52272 4.14988
4332 1 25.3839 10.6804 4.39043
5130 1 27.2202 10.646 6.26301
4336 1 24.4234 10.7936 8.04958
5131 1 29.0364 8.81343 6.09768
5929 1 30.5713 8.82126 4.5572
5930 1 30.4187 10.9402 6.05201
5132 1 28.6526 10.5953 4.33201
5933 1 31.0713 9.26506 7.72797
5932 1 32.6 10.5149 4.71252
5931 1 32.5037 8.61677 6.0282
6729 1 34.616 8.87971 4.81079
6730 1 34.7012 10.6777 6.26339
6733 1 34.2817 8.79217 7.94351
5936 1 32.7213 10.9627 7.69204
7609 1 1.23225 12.6719 4.58165
7610 1 1.18889 14.479 6.28052
7611 1 2.99088 12.6478 5.94951
7612 1 3.24693 14.46 4.53371
7616 1 3.28545 14.8984 8.2118
7613 1 1.47884 12.8549 8.38538
409 1 5.00187 12.6033 4.16242
411 1 7.0711 13.1448 6.34384
412 1 6.83791 14.8093 4.47497
410 1 5.14144 14.5689 6.32761
1209 1 8.92954 13.0726 4.88105
1211 1 11.1375 13.2386 6.22619
1212 1 10.8121 14.6637 4.42516
1210 1 8.95291 14.6978 6.87357
1216 1 10.9439 14.9634 8.37633
1136 1 8.66384 12.8148 8.40309
2010 1 12.79 14.7955 6.61306
2009 1 12.2985 12.612 4.19234
2011 1 14.1991 12.9344 6.2609
2012 1 14.3796 14.9198 4.38495
2016 1 14.703 14.833 7.9928
2809 1 16.1757 12.7201 4.48143
2810 1 16.1463 14.6638 6.03964
2811 1 17.9702 13.0275 6.01152
2812 1 17.6418 14.3284 4.26827
3609 1 19.607 12.3598 4.08713
3610 1 19.5799 14.562 5.79709
3611 1 21.154 12.6403 6.17401
4409 1 23.4781 12.6772 4.5159
3612 1 21.2597 14.5618 4.19645
4410 1 23.1021 14.5245 5.80184
3616 1 21.4381 14.2681 8.04534
4413 1 23.1605 12.741 7.41088
3613 1 19.3883 12.9488 8.05521
4411 1 25.3391 12.6676 6.21688
5209 1 27.2076 12.5165 4.24606
5210 1 26.9861 14.6466 5.99531
4412 1 25.2028 14.5576 4.3859
4416 1 24.9297 14.2922 7.59088
5212 1 28.8281 14.4405 4.48905
5211 1 28.7569 12.475 5.93794
6009 1 30.3306 12.5142 4.27255
6010 1 30.6243 14.3965 6.07274
5216 1 28.6524 14.1238 7.63649
6812 1 -0.43756 14.2347 4.21728
6811 1 -0.474597 12.6745 6.27022
6012 1 32.7249 14.1228 4.10387
6011 1 32.5142 12.4673 6.17171
6809 1 34.4309 12.2855 4.38933
6810 1 34.6459 14.2075 5.83532
6816 1 -0.49148 14.4663 7.9398
6813 1 34.3585 12.7923 7.80472
7692 1 2.98026 16.5689 6.02518
7689 1 1.40396 16.1198 4.17469
7769 1 1.31053 17.9147 6.21039
6892 1 36.1958 17.7812 4.62117
6891 1 -0.290156 16.2328 6.40252
7767 1 2.7964 18.1115 4.35243
489 1 4.90872 16.4396 4.3036
491 1 6.92219 16.1407 6.66061
492 1 6.97112 18.1339 4.57058
7771 1 5.2791 18.197 6.30191
490 1 6.98031 18.0516 8.08127
7691 1 4.91946 16.6251 8.06642
1289 1 9.046 16.1248 4.60044
2089 1 10.7906 16.4418 6.41595
1292 1 10.5587 17.9436 4.38506
1290 1 8.79357 18.2288 6.39915
1291 1 8.54354 16.3971 8.28462
1296 1 10.9122 18.0176 7.91097
2090 1 12.4905 18.2767 6.06362
2006 1 12.4816 16.67 4.60295
2091 1 14.4469 16.4222 6.07555
2092 1 14.467 18.3185 4.4763
2093 1 13.1116 16.7141 8.47345
2889 1 16.2406 16.3812 4.3924
2890 1 16.3496 18.1967 5.96093
2891 1 18.0343 16.3901 6.17754
2892 1 18.2831 18.585 4.1825
3689 1 19.8427 16.5608 4.12527
2893 1 16.3103 16.7411 7.82115
3690 1 19.517 18.5354 6.13689
3691 1 21.4129 16.3025 5.74057
4489 1 23.1949 16.4332 3.86312
4490 1 23.4086 17.9653 6.08095
3692 1 21.5883 18.3888 4.08832
3696 1 21.4569 17.9358 7.55221
3693 1 19.7913 16.2969 7.77504
4569 1 23.2285 19.7921 4.25417
4573 1 23.1917 19.9627 7.48826
4493 1 23.2747 16.1341 7.8181
4491 1 25.2466 16.471 5.85612
4492 1 25.2318 18.4012 4.26106
5289 1 27.1547 16.4643 4.3083
5290 1 26.9479 18.4091 6.0017
5293 1 27.0038 16.1903 7.56683
4571 1 25.4718 20.2744 5.90373
5291 1 28.9295 16.3419 5.93571
5292 1 28.8705 18.4144 4.61698
6089 1 30.6495 16.3977 4.21901
6090 1 30.9691 17.9591 5.93589
6093 1 30.6494 16.302 7.8298
6091 1 32.562 15.9969 5.88394
6092 1 32.8438 17.646 4.21884
6889 1 34.5748 16.1524 4.35817
6890 1 34.3819 17.8738 6.3286
7772 1 3.19756 19.9271 6.14943
4961 1 1.34048 20.2164 4.47016
7770 1 1.45089 21.9967 6.4258
7847 1 3.46304 21.7323 4.30156
6976 1 -0.548803 21.7727 8.04464
569 1 4.98166 19.635 4.46171
571 1 7.06892 19.9817 6.50704
570 1 4.77538 21.7165 6.25996
572 1 6.76832 21.6722 4.56294
651 1 6.79853 23.6092 6.25563
573 1 5.01268 19.8345 8.02484
576 1 6.92513 22.0417 8.03
1371 1 10.6585 20.1357 6.16026
1369 1 8.65676 19.7846 4.51313
1370 1 8.64194 21.7874 6.22243
1372 1 10.3786 21.682 4.49239
1449 1 8.53438 23.4281 4.61194
1451 1 10.2608 23.6397 6.68873
1373 1 8.92101 19.9041 8.04473
1453 1 8.66761 23.5748 8.4217
2171 1 13.9733 20.398 6.12881
2170 1 12.2306 21.8983 5.89203
2169 1 12.1465 20.0818 4.23436
2172 1 14.0747 22.1659 4.31726
2249 1 12.5069 23.8602 4.50518
2251 1 14.5742 23.8837 6.46607
2173 1 12.5827 19.7986 8.07644
2971 1 17.7858 20.1048 6.04308
3769 1 19.9082 20.3096 4.11995
2969 1 16.2051 19.9678 4.58017
2970 1 15.8579 21.9475 6.01559
2972 1 18.0663 21.9534 4.58059
3049 1 16.0064 23.568 4.0812
3051 1 17.9044 23.9571 6.17229
3770 1 19.6739 21.8626 6.0948
3849 1 19.5495 23.6963 4.38125
3851 1 19.5246 23.5887 7.83046
3773 1 19.6975 20.0583 7.96328
3771 1 21.5947 19.883 5.9243
3772 1 21.8054 21.6931 4.03867
4570 1 23.5972 21.7246 5.8514
4645 1 23.459 23.3943 4.0469
3776 1 21.5204 22.0531 7.49201
4653 1 23.6992 23.6237 7.70018
5369 1 27.1695 20.1237 4.39559
4572 1 25.0976 21.7579 3.86408
5370 1 27.3615 22.2262 6.28949
5449 1 27.0511 23.361 4.28732
4651 1 25.5603 23.6895 5.99074
5453 1 26.9504 23.8449 8.26498
5371 1 29.0833 20.2299 6.1036
5372 1 29.1895 22.1881 4.20453
6169 1 31.1092 19.6918 4.23294
6170 1 31.0841 21.7385 6.01806
6174 1 30.8256 23.2326 8.02499
5376 1 28.8998 21.4163 8.0402
6249 1 31.1855 23.6428 4.38163
5451 1 29.3672 23.7463 6.43206
6971 1 -0.276427 20.1309 6.2269
6972 1 36.0852 22.071 4.74327
6969 1 34.4145 19.6105 4.44934
6172 1 32.7529 21.443 4.25055
6171 1 32.9083 20.1114 6.20362
6970 1 34.3689 21.9196 6.42251
6251 1 32.8014 23.4689 6.04544
6973 1 34.6621 19.6878 7.9486
7849 1 1.54504 23.3877 4.5758
7851 1 3.26511 23.5013 6.26214
7929 1 1.61671 25.4711 6.26978
7131 1 2.0415 26.9988 4.43402
7056 1 -0.358559 27.066 6.11558
7931 1 3.52621 27.5847 6.32995
7852 1 3.50759 25.1439 4.37929
7052 1 -0.104195 25.5021 4.3481
7856 1 3.26739 25.8713 8.06765
7055 1 -0.0753985 25.6266 8.46673
649 1 5.18318 23.6107 4.6449
650 1 4.97993 25.3612 6.33897
652 1 7.30956 25.3805 4.72726
731 1 6.92956 27.2533 6.34002
729 1 5.15536 27.2425 4.90289
656 1 7.08457 25.3446 8.15115
1450 1 8.98198 25.4865 6.29729
1452 1 10.4296 25.4413 4.44523
1529 1 8.64081 27.6267 4.67989
1531 1 10.729 27.3016 5.9583
1456 1 10.7992 25.5828 8.02285
1533 1 8.82739 27.5567 7.70713
2250 1 12.3258 25.4901 6.28851
2252 1 14.2772 25.3546 4.3804
2331 1 14.2903 27.3604 6.13372
2329 1 12.3843 27.1239 4.21429
3129 1 15.8876 27.319 4.25674
2333 1 12.5537 27.5687 7.50158
3050 1 15.8396 25.8134 6.33782
3052 1 17.6028 25.4964 4.31938
3131 1 18.2721 27.4888 6.33669
3929 1 19.6018 27.1901 4.583
3850 1 19.6947 25.3458 6.17826
3933 1 19.8773 27.3304 8.02799
4649 1 21.7943 23.4896 5.82505
3852 1 21.6646 25.5464 4.28344
4650 1 23.5692 25.2244 6.05046
3931 1 21.5458 27.6178 6.19397
4729 1 23.2077 27.5825 4.48233
3856 1 21.6273 25.5804 7.85235
4652 1 25.0557 25.22 4.15004
5450 1 27.2513 25.5566 5.91414
4731 1 25.0011 27.2482 6.0544
5529 1 27.0859 27.2776 4.40082
4656 1 25.3083 25.6074 7.66905
5452 1 29.0473 25.7213 4.48615
6250 1 30.8387 25.5422 6.27495
5531 1 29.1755 27.2573 6.24433
6329 1 31.0762 27.3397 4.33278
6253 1 28.4522 25.8764 7.68219
5456 1 30.834 27.3313 7.85891
6331 1 32.7398 27.4029 6.20426
7051 1 -0.453807 23.868 6.72114
7049 1 34.4682 23.7108 3.99217
6252 1 32.7495 25.6779 4.14964
7050 1 34.5319 25.283 5.72332
6256 1 32.3858 25.2153 7.96388
7133 1 34.4063 27.1062 7.65886
7930 1 1.64023 28.8947 6.20063
7209 1 1.50841 30.7937 4.82193
7932 1 3.74051 29.2039 4.61169
7213 1 1.52192 31.2824 8.32222
7211 1 3.24726 31.0336 6.59875
6411 1 -0.16208 30.7508 6.3357
730 1 5.27945 29.5178 6.84124
732 1 6.93928 29.0492 4.47644
11 1 7.06945 30.9625 6.24343
9 1 5.22302 31.216 4.45795
736 1 7.10161 29.5853 8.33929
1530 1 8.75819 29.4681 6.39065
1532 1 10.5121 29.2106 4.6348
809 1 8.63238 31.1063 4.4407
811 1 10.7697 31.2159 6.3112
1536 1 10.566 29.5585 8.08712
2330 1 12.4693 29.4897 6.17348
2332 1 14.2026 29.0034 4.26464
1611 1 14.3194 30.9892 6.0959
1610 1 12.3128 31.1233 4.66066
1613 1 12.5567 31.0155 8.16111
3130 1 16.1476 29.0123 5.89474
2409 1 16.0062 30.9055 4.43865
3132 1 17.9819 29.297 4.385
2411 1 18.054 31.068 6.2376
3209 1 19.7718 30.9887 4.37953
2413 1 16.2197 30.4392 7.68933
3930 1 19.8797 29.2009 6.6908
3213 1 19.7956 31.123 7.99054
3932 1 21.074 29.2892 4.49187
4730 1 23.3438 29.1086 6.12477
3211 1 21.7603 30.8004 6.45441
4009 1 23.3951 30.7134 4.456
3936 1 21.9357 29.2488 8.06659
4013 1 23.5121 31.2483 8.04792
4732 1 25.3233 29.0968 4.36778
5530 1 26.9577 29.3722 6.04286
4812 1 27.129 31.0606 4.20262
4809 1 24.9227 31.0916 6.17658
4813 1 26.9066 30.9004 8.03972
5532 1 28.8584 29.2632 4.1714
6330 1 30.7642 29.2619 6.14619
4811 1 28.9846 30.7486 6.04482
5609 1 30.5928 30.9026 4.41128
6332 1 32.8758 28.8916 4.59161
7129 1 34.4542 27.1826 4.40506
7132 1 -0.57997 29.2691 4.14514
5611 1 32.5217 31.2808 6.19262
7130 1 34.706 28.8393 5.9896
6409 1 34.5927 30.7766 4.26518
6413 1 34.3785 30.9911 7.69491
6336 1 32.5437 29.4463 7.84898
7289 1 1.56281 34.8616 4.12638
7210 1 1.115 33.2935 6.0447
7291 1 3.26799 34.8043 6.21046
7216 1 3.18595 33.1375 7.73728
7212 1 3.03571 32.7647 4.45653
7293 1 1.44347 34.7739 7.977
6416 1 -0.496144 32.935 7.8453
89 1 5.2233 34.7205 4.39574
91 1 7.04637 34.8679 6.27633
10 1 5.11035 32.8376 6.065
12 1 7.00741 33.0074 4.69618
16 1 7.10404 32.7873 7.48661
803 1 8.63016 34.6843 4.43844
889 1 10.3989 34.6085 6.14835
810 1 8.76208 32.79 6.29901
812 1 10.4297 32.7224 4.47972
816 1 10.7215 32.9904 8.10943
1689 1 12.4315 34.6974 4.11829
1693 1 12.4586 32.8194 6.35262
1691 1 14.1809 34.5794 6.05198
1612 1 14.2067 32.8501 4.35071
2489 1 15.9843 34.5736 4.3953
2410 1 16.0077 32.5256 6.10297
2491 1 17.862 34.7421 6.15823
2412 1 17.699 32.8587 4.31429
3289 1 19.8117 34.7506 4.50732
2493 1 15.8817 34.7972 7.83932
3210 1 19.8225 32.6429 6.24459
3293 1 19.4318 34.7725 7.80557
3291 1 21.5472 35.0253 6.12845
3212 1 21.6117 32.7115 4.50076
4010 1 23.2206 32.974 5.97788
4089 1 23.2677 34.7045 3.8787
4093 1 23.2619 34.3115 7.73371
3216 1 21.3866 32.9592 8.09171
4890 1 26.7533 -0.292923 5.47424
4091 1 24.9108 34.8136 5.96995
4889 1 26.8102 34.3225 4.25224
4012 1 25.1729 32.5111 4.11344
4810 1 27.269 32.6726 5.93689
4095 1 25.0291 -0.353435 8.00419
4011 1 25.2496 32.4746 7.96749
4891 1 28.7402 34.6299 6.10532
5610 1 28.7185 33.0216 4.31225
5689 1 30.9307 34.4388 3.98509
5616 1 30.5508 32.7862 6.01104
5693 1 30.9074 34.6087 7.92259
6491 1 -0.516947 34.7393 6.03608
6412 1 -0.435965 32.6726 4.28301
5691 1 32.3085 34.6598 6.03093
5612 1 32.7024 32.5945 4.6217
6489 1 34.2616 34.597 4.44582
6410 1 34.3837 33.0505 6.07209
6493 1 34.1236 34.7571 7.62525
7296 1 3.45737 -0.12318 7.91485
7294 1 1.31843 -0.165413 10.1109
6575 1 1.39335 1.60399 11.7722
7300 1 3.39514 0.0376763 11.7808
7375 1 3.37153 1.69471 9.56869
7297 1 -0.528741 1.60129 9.50958
6580 1 36.0608 3.47145 11.3357
176 1 7.02779 3.65961 7.49738
94 1 5.0043 0.0950742 9.683
177 1 4.99613 1.94463 11.5159
100 1 6.83597 -0.32113 11.6699
175 1 6.7407 1.68373 9.83482
896 1 10.5928 -0.300351 8.46725
973 1 8.8491 1.6982 8.19267
976 1 10.7616 3.2099 8.22531
977 1 8.2035 1.5868 11.899
975 1 10.8033 1.67625 10.0452
900 1 10.7534 36.0862 11.8969
894 1 8.69633 0.147512 10.0692
974 1 8.60777 3.45147 9.72891
1696 1 14.0466 -0.475318 7.75408
1776 1 14.2697 3.35018 8.52967
1777 1 12.4569 1.83256 11.6556
1700 1 14.5195 -0.0884313 11.904
1775 1 14.4073 1.24992 10.0671
1694 1 12.6342 -0.328063 10.392
1774 1 12.2229 3.40939 10.0128
1780 1 14.1329 3.21417 11.4584
2577 1 16.2718 1.53571 11.5546
2494 1 16.0741 -0.450085 9.79099
2500 1 17.9531 -0.359786 11.5362
2575 1 18.2254 1.37808 9.66263
3294 1 19.761 -0.456858 9.76007
3377 1 19.8465 1.27708 11.4519
2580 1 17.8247 3.21098 11.3104
3300 1 21.6552 -0.385846 11.9116
3375 1 21.7698 1.35733 9.93765
4177 1 23.6492 1.69639 11.6442
4094 1 23.2391 -0.513996 10.0688
3380 1 21.7599 3.38879 11.3062
4174 1 23.7621 3.48582 9.73488
4100 1 25.2384 -0.250274 11.5108
4175 1 25.2397 1.33847 9.68361
4977 1 27.1673 1.64529 11.421
4894 1 26.8465 -0.393531 9.62752
4180 1 25.7508 3.58019 11.7137
4974 1 27.1466 3.53564 9.75698
5773 1 30.5788 1.41486 7.66825
4975 1 28.9557 1.45895 9.69753
5777 1 30.7647 1.94747 11.3725
4900 1 28.9522 -0.358792 11.4154
5694 1 30.653 -0.277995 9.68801
5774 1 30.8961 3.63932 9.38882
4980 1 28.9319 3.17887 11.2988
5696 1 32.598 0.0679157 7.94802
6573 1 34.3902 1.71208 7.71391
5776 1 32.5238 3.30681 7.73816
7298 1 36.0545 -0.244601 11.2236
5775 1 32.23 1.76471 9.59207
6494 1 34.416 0.0664656 9.74012
6577 1 34.5787 1.55615 11.6222
5700 1 32.421 -0.0944233 11.2665
7456 1 3.30357 7.47477 7.71178
7377 1 3.10912 3.47068 11.377
6656 1 36.1062 7.06801 7.89815
7374 1 1.21537 3.24516 9.66133
7457 1 1.30537 5.07694 10.8604
7455 1 3.44939 5.69477 9.56435
6655 1 35.8114 5.33401 9.75128
7460 1 3.13439 7.18584 11.6564
7454 1 0.915627 7.18099 9.64899
180 1 6.84462 3.70829 11.4901
253 1 5.08274 5.43578 7.91614
174 1 5.26054 3.3318 9.46783
257 1 4.92905 5.43634 11.5452
255 1 6.98507 5.34712 9.53959
254 1 5.21012 7.5215 9.76568
260 1 6.9555 7.36542 11.255
1053 1 9.15031 5.35965 8.06178
980 1 10.4338 3.71942 11.9265
1057 1 8.65212 5.57681 11.506
1055 1 10.8663 5.23858 9.68863
1857 1 10.4471 6.98221 11.4701
1054 1 8.46608 7.31747 9.58515
1778 1 12.3794 5.17832 11.4491
1855 1 14.2455 5.45695 10.0096
1860 1 14.7256 7.04285 11.7829
1854 1 12.5071 7.01345 10.1746
2574 1 16.2256 3.06853 9.7994
2657 1 16.0763 5.08712 11.9365
2655 1 17.4971 5.06241 9.72526
2660 1 17.9382 6.42769 11.8833
2654 1 16.233 7.0924 10.2876
3374 1 20.2317 3.03305 9.50733
3456 1 21.5076 7.2293 8.03271
3457 1 19.5861 4.7529 11.3029
3454 1 19.8174 7.10435 9.98356
3455 1 21.8377 5.13791 9.67299
4257 1 23.6251 5.61863 11.4799
4254 1 23.2722 7.00367 9.44688
3460 1 21.4749 7.09299 11.6303
4255 1 25.3303 5.38737 9.70719
5057 1 26.7585 5.47136 11.6305
4260 1 24.9821 7.49988 11.6608
5054 1 27.1635 7.01424 9.58402
5853 1 30.7395 5.3477 7.99096
5856 1 32.6833 7.11615 7.94466
5055 1 28.8553 5.18075 9.51643
5857 1 30.8022 5.24714 11.2428
5854 1 30.88 7.17439 9.53207
5060 1 28.9019 7.02562 11.4668
5780 1 32.6419 3.57254 11.6229
6660 1 36.1367 7.25225 11.4404
6574 1 34.2136 3.45708 9.60597
5855 1 32.5958 5.24988 9.6446
5860 1 32.4984 7.29405 11.8262
6657 1 34.0688 5.48265 11.8633
6654 1 34.0873 7.23023 9.65886
7537 1 1.43882 9.1351 11.6117
7534 1 1.67259 11.2285 9.89906
7540 1 3.2014 10.9013 11.5769
7535 1 2.99041 8.80257 9.84766
6740 1 -0.301412 10.7964 11.3803
337 1 4.80943 8.76064 11.6992
335 1 6.71691 9.31209 9.47853
340 1 6.20923 10.6655 11.638
334 1 4.67418 10.929 9.65995
1137 1 8.32177 9.24112 11.4818
1140 1 10.8149 8.98192 10.0279
1219 1 10.781 10.8703 11.5285
1134 1 9.01804 10.8093 9.78897
1936 1 14.4375 11.2133 8.21965
1933 1 12.729 9.13648 8.47639
1937 1 12.5509 9.27035 11.7092
1935 1 14.2887 9.06749 10.005
1940 1 14.6996 11.0048 12.3284
1934 1 12.0762 10.9705 9.78341
2734 1 16.0121 11.1663 9.89185
2737 1 16.1125 9.08086 11.5849
2735 1 17.9635 8.82765 10.1267
2740 1 17.6631 10.9739 11.7811
3537 1 19.6013 8.99829 11.6329
3534 1 19.3257 11.0844 9.76575
3535 1 21.6051 8.91811 9.43811
3540 1 21.2473 10.8664 11.6767
4334 1 22.9321 11.0098 10.0844
4337 1 23.142 9.04413 11.7328
4333 1 23.2769 8.98382 7.77458
5133 1 27.1025 8.84539 8.13016
4335 1 24.9668 8.77006 9.67607
5137 1 27.1282 8.69433 11.585
5134 1 26.8242 10.7993 9.66817
4340 1 25.4183 10.4208 11.7092
5136 1 28.7727 10.5388 8.0593
5135 1 28.9286 8.52067 9.82223
5937 1 30.4208 8.93437 11.5868
5140 1 28.7851 10.6467 11.4197
5934 1 30.658 10.8029 9.77019
6736 1 -0.325351 11.0385 8.13221
6735 1 -0.183117 9.4165 9.63735
5940 1 32.6229 10.9816 11.7058
5935 1 32.2686 9.20228 10.0086
6737 1 34.3807 8.87365 11.1801
6734 1 34.6603 11.1031 9.78178
7617 1 1.38531 12.9065 11.6083
7614 1 1.82504 14.6327 10.1953
7620 1 3.39369 14.4017 11.7461
6815 1 -0.242519 12.7721 9.97279
7615 1 3.5412 12.7174 9.49479
416 1 6.7063 14.5409 8.46584
413 1 4.89618 12.6447 7.89498
420 1 5.11166 12.6903 11.628
415 1 6.74172 12.6436 9.82902
414 1 4.86183 14.5672 9.88097
1213 1 6.9262 14.5286 11.3604
1217 1 8.79258 12.5507 11.6531
1215 1 10.7727 12.9646 9.84761
1295 1 10.8185 14.1873 11.8994
1214 1 9.41845 14.7075 10.087
2013 1 12.6756 12.7401 8.22839
2017 1 12.6107 12.753 11.8251
2014 1 13.4809 14.2952 9.72445
2015 1 14.1309 12.1894 10.2254
2020 1 14.5673 14.9421 12.398
2813 1 16.267 12.836 7.97377
2816 1 17.7528 14.6093 8.21405
2817 1 15.8875 12.875 11.8079
2814 1 16.206 14.4281 9.92672
2815 1 17.4615 12.683 10.136
2820 1 17.8843 14.4963 11.6789
3617 1 19.4779 12.7925 11.582
3614 1 19.7218 14.3326 9.91791
3615 1 21.3626 12.6742 9.63079
4417 1 23.4762 12.5844 11.7637
4414 1 23.2537 13.9688 9.5606
3620 1 21.3466 14.5242 11.7078
5213 1 26.9376 12.503 8.05152
4415 1 25.1472 12.5671 9.35712
5217 1 26.7864 12.4801 11.3582
5214 1 27.355 14.3455 9.76781
4420 1 25.2141 14.3603 11.2568
6013 1 30.4321 12.4861 8.04637
5215 1 28.6266 12.423 9.58243
6017 1 30.7199 12.4882 11.4834
6014 1 30.4391 14.4863 9.1457
5220 1 29.1013 14.2822 11.3699
6820 1 -0.300961 14.7307 11.4537
6016 1 32.6364 14.5352 7.91581
6015 1 32.6333 12.3635 9.5661
6020 1 32.8479 14.1588 11.3999
6817 1 34.5123 12.6512 11.643
6814 1 34.7581 14.3378 9.78492
7696 1 3.21801 18.1333 8.09151
7693 1 1.39564 16.3358 8.44153
7697 1 1.61583 16.2404 11.7833
7694 1 1.64431 18.1745 10.1619
7695 1 3.37629 16.5696 9.88937
6898 1 -0.291606 18.1496 11.5679
6895 1 -0.206102 16.3246 9.86328
6896 1 -0.431486 18.0712 8.26287
7773 1 3.32004 19.7257 9.86398
6900 1 1.36585 20.0063 11.5537
7775 1 3.15183 18.04 11.8837
494 1 4.9894 18.2506 9.60573
1293 1 5.31143 16.2058 11.6414
493 1 6.938 16.4869 9.98357
500 1 6.38974 18.1275 11.8055
577 1 4.81841 19.8376 11.6267
495 1 9.05416 16.1682 11.9817
2094 1 11.1822 16.4961 10.0575
1294 1 8.99827 17.6908 10.3713
1299 1 10.8324 18.1567 11.8727
2096 1 14.3364 18.3576 7.64047
2177 1 12.6533 18.171 10.0155
2097 1 12.9746 16.4504 11.9151
2095 1 14.6486 16.4128 10.1125
2100 1 14.3747 18.3382 11.4621
2894 1 15.9846 18.5856 9.64677
2175 1 14.4851 20.3229 9.81701
2896 1 17.9658 18.2885 7.90242
2897 1 16.1518 16.5195 11.6453
2895 1 17.7368 16.5671 10.0185
2900 1 17.8983 18.2818 11.4282
3694 1 19.6747 17.9719 9.54414
3697 1 19.8137 16.272 11.4921
3695 1 21.3842 15.9578 9.65125
4497 1 23.5411 16.0078 11.0075
4494 1 22.7983 18.0917 9.33209
3700 1 21.6658 18.2263 11.3433
4496 1 25.1985 17.9905 7.62271
4495 1 25.492 15.7572 9.26013
5297 1 27.2403 16.2779 11.4396
5294 1 26.977 17.745 9.3505
4500 1 24.9172 17.7843 11.1802
4575 1 25.1054 19.7115 9.50625
5296 1 29.0127 18.4884 7.59718
5300 1 28.6693 17.9653 11.5566
5295 1 29.0042 16.2873 9.50571
6097 1 30.7642 16.1281 11.2271
6094 1 30.8613 17.9614 9.55662
6096 1 32.49 17.5643 7.69863
6893 1 34.5718 16.1668 8.04923
6100 1 32.365 17.8689 11.5211
6095 1 32.694 16.1652 9.81813
6897 1 34.4243 16.2021 11.5239
6894 1 34.562 18.0095 9.86929
7776 1 3.23672 21.4285 8.05279
7690 1 1.37573 19.9458 7.74616
6975 1 -0.226999 19.8717 9.64169
7774 1 1.32296 21.5089 9.49757
7777 1 -0.345073 21.536 11.5142
7857 1 1.19591 23.8452 11.2823
6980 1 -0.194168 23.4468 9.63317
7855 1 3.12976 23.823 9.60435
653 1 5.03897 23.668 8.14497
7780 1 2.82125 22.1882 11.1998
574 1 5.08576 21.6158 9.73262
575 1 6.89549 20.0552 9.96885
580 1 6.89985 21.7939 11.6107
657 1 5.16097 23.551 11.2065
1376 1 10.9162 21.4335 7.87805
496 1 8.69058 19.8574 11.5954
1375 1 10.8296 19.7325 9.70815
1374 1 9.11195 21.6994 10.0416
1380 1 10.5469 21.6911 12.0517
2176 1 14.5001 21.946 8.15013
2973 1 16.0257 20.0415 7.81139
1300 1 12.5903 20.0239 11.3132
2174 1 12.6364 21.9048 9.67794
2180 1 14.5416 22.2703 11.5797
2257 1 12.527 23.408 11.5852
2977 1 16.1619 20.1488 11.6911
2255 1 14.3094 23.7166 9.53293
2976 1 17.8188 22.0928 7.99423
2975 1 17.6224 20.3212 9.65162
2974 1 16.2498 22.2018 9.86415
3774 1 17.9923 22.0628 11.5689
3053 1 16.3264 23.9492 8.07747
3055 1 18.0272 23.5999 9.90713
3777 1 19.6508 20.2021 11.3982
3853 1 20.1175 22.0261 9.75636
3857 1 20.2421 23.516 11.4072
4577 1 23.5447 20.0183 11.243
3775 1 21.5591 20.0745 9.54567
4574 1 23.3061 21.9078 9.46279
3780 1 21.9739 21.7542 11.488
3855 1 21.8268 23.9675 9.46782
5373 1 26.9398 20.1559 8.09794
4576 1 25.2379 21.974 7.73006
5377 1 27.016 19.9765 11.5865
4580 1 24.9315 21.789 11.2949
5374 1 26.8094 22.029 9.9113
4655 1 24.9278 23.8748 9.75332
5457 1 26.6802 23.5654 11.5796
6173 1 31.0609 20.001 7.75388
6177 1 30.6269 19.5501 11.43
5380 1 28.8737 19.888 9.68449
5455 1 29.0332 21.3856 11.4245
5375 1 30.6416 21.4239 9.69987
6257 1 30.916 23.1794 11.1197
5460 1 28.8902 23.4152 9.67158
6176 1 32.7386 21.5237 8.11643
7053 1 34.6545 23.5436 8.47537
6977 1 34.6516 19.8952 11.2742
6175 1 32.6677 19.5141 9.59645
6180 1 32.4473 21.4154 11.137
6974 1 34.3892 21.4268 9.69337
6255 1 32.6674 23.7137 9.73499
7057 1 34.4279 23.2024 11.4643
7853 1 1.77292 23.6739 8.05691
7933 1 1.29127 27.3395 8.33563
7854 1 1.52429 25.7864 10.142
7937 1 1.4518 27.7909 11.5573
7060 1 36.0145 25.3153 11.2131
7860 1 3.42483 25.7166 11.6232
7935 1 3.49409 27.4169 9.82899
733 1 5.371 27.6685 8.08456
655 1 6.82593 23.6014 9.81273
654 1 5.11458 25.5503 9.68708
660 1 6.8469 25.4446 11.5412
735 1 7.24878 27.2083 9.54383
737 1 5.80184 27.4393 11.2498
1457 1 9.13571 23.811 11.6687
1455 1 10.7647 23.8105 9.84029
1454 1 9.08297 25.8394 9.76248
1460 1 10.8104 25.9296 11.558
1535 1 10.5435 27.7293 9.54784
1537 1 8.63997 27.5703 11.1562
2253 1 12.533 23.6163 7.95691
2256 1 14.1227 25.7701 8.06196
2254 1 12.6406 25.7349 9.70705
2260 1 14.002 25.4153 11.3801
2335 1 14.4818 27.4554 9.94946
2337 1 12.5607 27.5123 11.6577
3057 1 16.1921 24.0526 11.3197
3133 1 16.0758 27.647 8.24832
3056 1 17.8432 25.7191 7.98286
3054 1 16.0297 25.3861 9.76041
3137 1 16.0975 27.0669 11.5619
3060 1 18.0297 25.7276 11.4608
3135 1 17.9218 27.2652 9.7282
3854 1 19.9626 25.5248 9.81924
3937 1 19.7141 27.3692 11.6012
4657 1 23.5124 23.5522 11.5478
4733 1 23.5076 27.488 7.83466
3860 1 21.7307 25.6268 11.7357
4654 1 23.5135 25.8316 9.53099
3935 1 21.6902 27.758 9.80623
4737 1 23.7118 27.0907 11.5785
5533 1 26.7687 27.5015 7.62367
4660 1 25.272 25.5166 11.2013
5454 1 27.4705 25.5852 9.91119
4735 1 25.312 27.496 9.79906
5537 1 27.4205 27.634 11.2017
5539 1 28.9167 25.7133 12.1192
6254 1 30.7694 25.2428 9.89859
6337 1 30.782 27.153 11.4973
5535 1 29.0374 27.1868 9.49395
7135 1 -0.423073 27.4324 9.69638
6335 1 32.4691 27.1393 9.84055
6260 1 32.6911 25.032 11.6391
7054 1 34.3786 25.4939 9.74049
7137 1 34.0626 27.3095 11.5464
7136 1 36.2597 28.9562 7.75955
7936 1 3.13016 29.2157 8.17525
7934 1 1.6042 29.3015 9.81387
7217 1 1.51927 31.0817 11.8546
7940 1 3.43089 29.1675 11.6471
7215 1 3.13103 31.2153 9.99587
6415 1 -0.35355 31.1389 9.9121
13 1 4.83052 31.6178 8.27491
734 1 5.05029 29.2565 9.675
740 1 7.01851 29.8553 11.2755
15 1 6.78203 31.4216 9.75874
17 1 5.12008 30.976 11.5092
813 1 8.88877 31.3211 8.00562
1534 1 8.99226 29.268 9.90765
1540 1 10.7123 29.3784 11.5979
815 1 10.5976 31.3826 9.77863
817 1 9.00816 31.1326 11.6537
2336 1 14.3158 29.077 7.85231
1617 1 12.4393 31.2604 11.3935
2334 1 12.4161 29.1479 9.38624
2340 1 14.2268 29.4907 11.4296
1615 1 14.3573 30.6954 9.24765
3136 1 18.058 29.1102 8.40614
2417 1 16.1715 31.1866 11.4959
3134 1 16.1179 29.3176 9.91974
3140 1 18.1741 28.9833 12.001
2415 1 18.1688 31.0747 9.83762
3934 1 20.0137 29.5065 10.0935
3217 1 19.6017 31.3826 11.9062
3940 1 21.8405 29.172 11.6865
4017 1 23.326 30.9299 11.6949
3215 1 21.6301 31.028 9.54591
4734 1 23.2763 29.3337 9.74548
4736 1 25.3498 29.4277 7.93788
4740 1 24.9775 28.949 11.6297
5536 1 26.931 29.3812 9.67453
5534 1 27.2746 31.2299 11.4024
4015 1 25.3914 31.2061 9.77414
5613 1 30.7445 30.8932 8.16198
6333 1 28.8289 29.1316 7.77421
4817 1 29.3302 28.9428 11.7107
6334 1 30.8119 29.0341 9.75018
5617 1 30.8559 31.1894 11.2199
4815 1 28.7988 30.7534 9.71695
7140 1 -0.524628 29.0384 11.6498
5615 1 32.7996 31.0746 9.99114
6340 1 32.2044 29.0027 11.636
7134 1 34.4975 28.9981 9.44951
6417 1 34.6623 30.9697 11.3892
6500 1 1.52188 34.8288 11.3909
7214 1 1.68517 32.9425 9.81967
7220 1 3.20896 32.9812 11.5502
7295 1 3.30995 35.1568 9.64659
6420 1 -0.212905 32.7939 11.1941
6495 1 -0.494972 34.6761 9.48448
93 1 5.19705 34.6493 8.22113
95 1 7.07689 34.6487 9.76464
97 1 4.82868 34.7894 11.7141
14 1 5.01562 33.0433 10.0059
20 1 6.72206 32.8523 11.6419
893 1 8.89214 34.6392 8.04336
814 1 8.41925 32.9263 9.9803
897 1 8.3994 34.7325 11.7454
895 1 10.351 34.6661 9.9597
820 1 10.3501 32.8656 11.91
1616 1 14.2171 33.2328 8.05063
1690 1 12.2295 34.6951 8.13456
1614 1 12.1856 33.0372 9.70559
1697 1 12.4672 34.4273 11.4207
1695 1 14.3172 34.7986 9.71764
1620 1 14.2941 32.7087 11.6887
2416 1 17.7359 32.9334 7.93102
2497 1 16.1188 34.7173 11.4843
2414 1 15.8582 32.7912 9.27123
2495 1 17.8839 34.5923 9.7195
2420 1 18.0184 33.1144 11.4222
3214 1 19.6314 32.7822 9.64156
3297 1 19.9098 34.7857 11.8058
3295 1 21.5026 34.5145 10.1155
3220 1 21.9332 32.9912 11.6885
4014 1 23.532 32.8858 9.95015
4097 1 23.5415 35.0292 11.9625
4893 1 26.6779 34.5827 7.55156
4016 1 25.2103 34.5128 9.81475
4897 1 27.09 34.7411 11.5628
4020 1 25.4901 32.7107 11.5918
4814 1 27.2041 33.0692 9.69643
4816 1 28.7556 32.6909 7.81118
4820 1 28.9298 32.9098 11.225
4895 1 29.1173 34.7354 9.53886
5697 1 30.9523 34.6432 11.2535
5614 1 30.8102 32.8685 9.67971
6414 1 32.5556 32.839 7.92729
5695 1 32.9901 34.7022 9.64274
5620 1 32.5501 32.9233 11.5446
6418 1 34.5582 34.8577 11.8381
4164 1 34.2448 32.7297 9.54532
4018 1 23.4984 32.7403 13.4907
7379 1 1.49861 -0.37196 13.0186
7304 1 1.1801 1.73536 15.0225
7381 1 3.23492 1.84967 13.4832
7302 1 3.57212 -0.21448 14.9722
6504 1 -0.288629 -0.102265 15.3607
7303 1 1.93553 0.243951 16.5847
4322 1 23.6166 10.6726 -0.582849
5703 1 32.7834 34.6514 17.0111
98 1 5.01755 -0.122824 13.2358
102 1 6.58818 -0.184399 15.4137
179 1 6.56831 1.8045 13.5601
181 1 4.94928 2.01251 15.3488
1683 1 14.5898 34.7464 -1.02111
898 1 8.24291 -0.0964592 13.6682
981 1 8.50687 1.46409 15.2474
979 1 10.4968 1.63183 13.1016
904 1 10.7732 0.0707472 14.8426
3301 1 20.1538 34.8883 15.2246
104 1 8.87986 -0.279301 17.1256
344 1 6.80079 9.01933 17.1098
1781 1 12.5888 1.64957 15.2231
1779 1 14.4006 1.73641 13.6181
1698 1 12.4233 0.0262815 13.4251
1704 1 14.4562 -0.309883 15.1557
1784 1 14.4544 3.3527 15.4491
5123 1 28.6789 8.88342 -0.885757
3382 1 22.2128 5.22265 16.8656
2663 1 17.7864 5.09975 16.8937
401 1 5.55197 14.3552 -0.70412
183 1 6.64053 1.71627 16.9919
2498 1 16.3525 -0.230476 13.3309
2581 1 16.2575 1.73872 15.4517
2504 1 17.8045 0.102657 15.0969
2579 1 18.1838 1.62748 13.2545
3298 1 20.0035 0.18568 13.4778
2584 1 18.056 3.19371 15.1389
7922 1 1.81606 28.9989 -0.615541
3381 1 20.1089 1.62103 15.481
3304 1 21.8826 0.027532 15.3605
4098 1 23.8721 -0.28427 13.4741
3379 1 21.7998 1.69054 13.2039
4181 1 23.8772 1.72063 15.1093
3378 1 19.9812 3.36788 13.5175
4178 1 23.5633 3.62839 13.2719
5543 1 28.8386 27.0492 17.0461
7783 1 3.22932 20.0851 16.6279
4898 1 27.3204 -0.135759 13.2246
4179 1 25.7684 1.62897 13.2572
4981 1 27.2862 2.01402 14.9802
4184 1 25.4477 3.57812 14.9795
7441 1 1.26342 7.14366 -1.06378
4902 1 27.4406 -0.0875918 17.0789
5698 1 30.7974 -0.221818 13.3973
4904 1 29.2601 -0.174413 15.3015
4979 1 28.8562 2.04706 13.4219
5781 1 30.6818 2.07084 15.2721
4984 1 29.0268 3.77633 15.1379
422 1 4.799 14.3497 16.7976
6579 1 -0.445815 1.30126 13.2809
5704 1 32.1535 -0.227562 15.2648
5779 1 32.4429 1.41777 13.2721
6498 1 34.2392 -0.371134 13.478
6581 1 34.7037 1.78918 15.2399
5784 1 32.6582 3.34388 14.7947
103 1 6.58012 34.6935 16.8654
5783 1 32.744 1.63214 16.9747
4023 1 27.3534 33.0377 16.7074
7378 1 1.47729 3.59057 13.1169
7384 1 2.78513 3.47439 15.1185
7461 1 1.26628 5.48619 14.8266
7464 1 3.15496 6.96678 14.7823
7458 1 1.25501 6.95337 13.1655
7380 1 3.01925 5.28964 12.9926
6664 1 -0.449683 6.93984 14.8412
6659 1 -0.546516 5.30073 13.0048
3218 1 19.7045 33.193 13.4477
1699 1 14.1948 34.6478 13.3121
184 1 6.91533 3.5326 15.4198
178 1 4.68842 3.6798 13.5766
7459 1 5.10679 5.54249 15.091
259 1 6.94308 5.30795 13.6094
264 1 6.88505 7.32378 15.3952
258 1 5.25281 6.97095 13.2276
262 1 5.38108 7.25457 17.1494
6082 1 31.02 18.0221 -0.417896
3783 1 22.0071 19.9984 16.8142
982 1 10.6831 3.47199 15.1634
978 1 8.68993 3.64085 13.5203
1058 1 8.91581 5.51621 15.2211
1059 1 10.5994 5.41237 13.4773
1060 1 9.13369 7.38102 13.3506
1141 1 10.9728 7.20167 15.1163
6742 1 34.3078 10.6975 16.8726
7143 1 -0.545183 27.2021 16.8446
984 1 12.4256 3.40484 13.5613
1861 1 12.7321 4.99112 15.3467
1859 1 14.1118 5.16116 13.5699
1864 1 14.3399 7.01919 14.8436
1858 1 12.4001 6.97022 12.9156
563 1 6.69184 20.0703 -1.0694
2578 1 16.0338 3.57962 13.6124
3705 1 19.8153 18.4006 16.5763
2661 1 16.0387 5.26436 15.3223
2659 1 18.3633 4.7062 13.2613
2658 1 16.3774 6.904 13.6842
3461 1 19.7185 5.21704 15.6792
7942 1 1.32578 29.0553 16.6382
4422 1 23.571 14.3966 16.901
7442 1 3.42994 5.72935 -1.15404
3384 1 21.968 3.29449 15.1802
3458 1 19.7443 6.53424 13.4184
3459 1 21.7982 5.06727 13.5624
4261 1 23.7083 5.56647 14.9373
4258 1 23.1806 7.23645 13.3934
1468 1 10.825 23.8385 16.981
4978 1 27.3102 3.76374 13.3233
4259 1 25.4641 5.49984 13.2861
5061 1 27.1742 5.65085 14.9794
5058 1 27.193 7.69011 13.4431
4264 1 25.3434 7.26635 15.2271
5778 1 30.6777 3.32733 13.1899
5059 1 29.0044 5.29775 12.9527
5861 1 30.8297 5.52833 14.9597
5064 1 29.1099 7.13586 14.9186
5858 1 30.5182 7.19908 13.1777
503 1 10.6888 12.2463 16.7626
6584 1 -0.391503 3.86626 15.2259
6578 1 34.5785 3.5107 13.106
5859 1 31.9556 5.4328 13.1534
6661 1 33.9867 5.13232 14.875
5864 1 32.5089 7.10121 15.1608
6658 1 34.3277 6.92033 13.4717
1618 1 12.626 33.0015 13.4644
3117 1 16.1879 32.5614 -1.07165
7541 1 1.03933 8.77171 15.0659
7538 1 1.11212 10.6358 13.4444
7539 1 3.22596 8.7171 13.4668
7621 1 2.85937 10.5429 15.1011
4742 1 23.2883 29.2937 16.6517
6744 1 -0.448751 10.6363 15.3118
3543 1 21.5594 8.99271 16.9038
7543 1 3.43311 8.96268 16.8422
341 1 5.00275 8.97403 15.0871
417 1 4.79101 10.4894 13.3038
338 1 6.90359 10.7426 15.2154
339 1 6.69237 9.03885 13.2051
5222 1 27.1767 14.1788 16.9561
4823 1 29.0552 31.3378 16.6818
1142 1 8.87138 9.0199 14.9383
1139 1 10.5016 9.08831 13.2448
1138 1 8.73037 10.9305 13.6866
1144 1 10.6432 10.4729 15.2963
7462 1 1.61285 6.97819 16.5893
7548 1 3.33346 12.5167 16.8588
3942 1 19.8748 29.3163 16.6807
1941 1 12.7537 9.07982 14.8905
1939 1 14.4159 8.72001 13.4454
1944 1 14.0674 10.8876 14.966
1938 1 12.5539 10.9333 13.3923
7142 1 34.2805 29.4849 16.8451
2499 1 18.0745 35.0396 13.6676
2664 1 18.0445 6.95009 14.952
2738 1 16.5172 10.7636 14.011
2741 1 16.2329 8.62575 15.3348
2739 1 17.848 8.74112 13.4066
2744 1 18.2749 10.5967 15.1925
743 1 6.43279 27.1271 17.0805
7702 1 1.28236 17.8549 16.9451
3538 1 19.5664 10.4833 13.2732
3541 1 19.6763 9.02307 15.4328
3464 1 21.4121 6.97201 15.3561
3539 1 21.3559 8.61559 13.5416
3544 1 21.5151 10.7175 14.6484
4262 1 23.4563 8.91787 15.574
822 1 8.63555 33.1749 16.9678
7603 1 4.08784 12.7884 -1.0902
4338 1 23.2438 10.8477 13.3096
4339 1 24.8758 9.15346 13.3872
5141 1 27.088 9.3166 14.8722
5138 1 27.2927 10.9771 13.2562
4344 1 25.1572 10.7408 15.2307
5139 1 29.0928 9.16983 13.5483
5941 1 30.8593 9.23105 15.4497
5144 1 29.2668 10.738 15.4435
5938 1 30.6356 10.7457 13.5897
4744 1 25.4028 27.2102 16.9909
2418 1 16.0308 32.9574 13.377
6883 1 -0.310908 15.9442 -0.798536
6739 1 36.0382 8.9023 12.907
5939 1 32.8592 8.98183 13.4198
5944 1 32.5711 10.8528 15.0353
6741 1 34.7424 8.92739 15.1376
6738 1 34.4073 10.9111 13.5544
583 1 6.72497 19.6407 16.7751
2562 1 15.8078 3.49958 -0.69451
6503 1 35.7907 34.711 16.9642
7624 1 1.43848 12.6287 15.3934
7618 1 1.51536 14.4282 13.5557
7619 1 2.82057 12.3714 13.3358
418 1 3.12706 14.0932 15.1555
6819 1 -0.32459 12.374 13.2517
7544 1 4.95204 10.8889 16.5863
421 1 6.70425 12.6192 16.6888
2424 1 17.9326 32.7429 14.9748
7623 1 5.29289 12.453 14.9201
419 1 6.95988 12.6943 13.1444
497 1 4.99011 14.3949 13.4874
424 1 6.92937 14.1881 14.8912
2501 1 16.1805 34.7569 15.3095
1221 1 9.14673 12.6411 15.1439
1224 1 10.6717 12.5549 13.4972
1218 1 8.80252 14.0468 13.333
1303 1 10.7151 14.4539 14.9977
6402 1 34.6049 32.9314 -0.867159
1220 1 12.4646 14.5935 13.4187
2021 1 12.4421 12.4656 15.2028
2019 1 14.349 12.9731 13.6801
2024 1 14.6414 14.5716 15.5544
6422 1 34.1631 32.9237 16.7477
5303 1 29.018 16.2772 16.6713
6583 1 -0.391097 1.9774 16.8764
2818 1 16.4772 14.6799 13.8538
2821 1 16.5267 12.9627 15.4731
2819 1 18.0827 12.7119 13.6109
2824 1 18.3687 14.5008 15.3003
2505 1 16.0756 -0.271346 17.0503
5863 1 32.6917 5.27078 17.0499
903 1 10.799 34.7389 16.729
3621 1 20.0467 12.5169 15.0377
3618 1 19.8532 14.4953 13.4633
3619 1 21.6119 12.7287 13.1188
4421 1 23.5743 12.53 15.123
3624 1 21.5805 14.2439 15.1091
4418 1 23.6669 14.5915 13.3448
901 1 8.58329 34.8217 15.356
4419 1 25.2099 12.3215 13.4612
4341 1 27.221 12.5233 15.263
5218 1 27.1185 14.3715 12.8685
4424 1 25.527 14.416 15.2892
3943 1 21.5597 27.5796 16.7708
6662 1 34.3572 7.28405 16.6835
5219 1 29.0601 12.7145 13.4883
6021 1 30.639 12.6009 15.6123
5224 1 28.9959 14.1662 15.2092
6018 1 30.8121 14.5745 13.2654
3223 1 21.3619 31.5052 17.0581
6823 1 35.9813 12.4108 17.0442
1702 1 12.5069 0.206981 16.9641
6824 1 36.1043 14.4197 14.8614
5763 1 32.9459 34.9463 -0.734251
6019 1 32.4775 12.7242 13.7147
6024 1 32.394 14.5278 15.1409
6821 1 34.3457 12.6272 15.2606
6818 1 34.2706 14.2825 13.387
1362 1 8.4945 21.7493 -1.0448
2022 1 12.4692 14.3819 16.7351
7701 1 1.53754 16.1046 15.5282
7698 1 1.41881 17.9677 13.457
7700 1 3.13064 15.9628 13.4297
6904 1 -0.484704 17.9425 14.9986
1785 1 12.7833 3.34725 17.1693
7704 1 2.79801 18.2101 15.2981
261 1 3.29173 5.68069 17.0502
498 1 4.81508 17.7013 13.6409
7699 1 4.7361 16.2949 15.3839
1301 1 6.88845 16.3116 13.442
501 1 6.89142 17.9325 15.0431
502 1 4.92796 18.1304 16.6358
1701 1 12.7358 34.852 14.9608
1302 1 8.89158 16.1619 14.8054
1297 1 10.6698 16.3603 13.3215
1298 1 10.6863 18.2339 15.2155
642 1 8.7982 18.5905 13.5665
1307 1 10.486 16.1201 16.5785
2179 1 12.3523 18.5551 13.4793
2018 1 12.5416 16.6342 14.9707
2099 1 14.4873 16.474 13.7697
2101 1 14.6025 18.2424 15.2999
2098 1 12.6293 18.4385 16.7635
4025 1 25.1453 30.8322 16.8817
263 1 7.04661 5.16363 17.0669
4502 1 23.9171 18.0722 17.1279
1061 1 8.77161 7.11935 16.9752
2901 1 16.3182 16.4729 15.3805
2898 1 16.2507 18.0854 13.3697
2899 1 18.2483 16.2888 13.8286
2904 1 17.9426 18.5252 15.3322
6262 1 30.7394 25.4845 16.8561
3698 1 19.6038 18.1599 13.1077
3701 1 20.2049 16.4935 15.2022
3699 1 21.9237 16.2712 13.0654
4498 1 23.4296 18.3349 13.1
3704 1 21.8433 18.2751 15.0264
4501 1 23.3868 16.1969 15.2911
4662 1 23.791 25.7136 16.6041
1863 1 14.4452 5.14372 17.1223
6343 1 32.8321 27.2967 16.7615
4499 1 25.4766 16.2335 13.2724
5301 1 27.0283 16.3617 15.1041
4504 1 25.1991 17.972 15.13
5298 1 26.8299 18.1675 13.2583
6102 1 30.2728 18.3491 16.8381
7463 1 4.85303 3.91903 17.0071
5304 1 28.8181 17.7945 14.8686
5299 1 29.1724 16.073 13.4575
6101 1 30.6984 16.0528 15.0506
6098 1 30.5096 17.9955 13.3443
5379 1 28.7128 19.7963 13.0416
1543 1 10.3872 27.4305 16.7792
6902 1 34.2407 18.3533 16.9217
6899 1 -0.446032 16.3678 13.3807
6099 1 32.6442 16.2592 13.1694
6103 1 32.0937 18.1081 15.1497
6901 1 33.887 16.2474 15.3054
6104 1 34.4587 17.9116 13.1723
6981 1 34.2238 20.059 14.9513
2262 1 12.7203 25.5784 16.7409
1379 1 14.0581 20.4192 17.1382
7781 1 1.20143 20.0319 14.8856
7778 1 1.3739 21.7244 13.1078
7779 1 3.25018 20.1457 13.2538
7784 1 3.23789 21.8039 14.8802
6979 1 -0.578121 19.5905 13.3206
7861 1 1.32117 23.5445 15.2676
7059 1 -0.44607 23.8087 13.1815
4002 1 23.3389 32.8238 -1.19989
6984 1 -0.417755 21.7492 14.9438
6083 1 32.7785 16.3368 -0.66326
579 1 6.89736 20.2022 13.3077
581 1 5.24537 19.7272 14.9813
578 1 5.19664 21.7781 13.2283
584 1 6.75003 22.0861 15.2137
659 1 6.75035 23.5886 13.0908
1063 1 10.8184 5.2198 16.9351
1383 1 10.7122 20.1634 17.1225
1381 1 8.47246 20.0224 15.3799
1377 1 10.2327 20.1415 13.9081
1378 1 8.78991 22.1925 13.5418
1384 1 10.2966 22.0586 15.0715
1461 1 8.34438 24.1195 14.9082
1459 1 10.8409 23.9647 13.4163
7062 1 34.1809 24.8884 16.8665
1382 1 8.52199 22.0147 16.7607
3063 1 18.4539 23.8738 16.8711
1304 1 12.205 20.6473 15.3064
2978 1 14.3194 19.8605 13.3276
2178 1 12.4695 21.5418 13.2307
2184 1 14.2332 22.0084 15.1775
2261 1 12.5425 23.5184 15.0731
6502 1 34.2404 -0.266693 16.8917
4182 1 23.6696 3.10959 16.9977
23 1 6.67975 31.0331 17.0848
2981 1 16.0491 20.2877 15.2667
2980 1 16.1822 22.1222 13.7474
2979 1 17.9998 20.3829 13.335
2984 1 17.9542 21.9647 15.3618
3781 1 19.8194 20.326 14.7235
3059 1 17.7672 23.578 13.0049
3061 1 16.182 23.6103 15.6369
3778 1 19.9131 22.0327 13.3446
1622 1 12.5812 33.0335 16.8821
1222 1 6.94822 15.8787 16.7441
3861 1 19.9854 23.8458 15.095
6743 1 -0.333748 8.75171 17.0698
3779 1 21.857 20.0369 13.1584
4581 1 23.366 20.1882 15.1662
3784 1 21.5958 21.9365 15.2444
3859 1 21.6731 23.1968 13.3472
4578 1 23.6693 21.7384 13.3901
4661 1 23.2774 23.3514 15.0864
5063 1 29.0418 5.50012 16.7406
4582 1 23.6052 21.7643 16.8635
4663 1 25.0035 23.8458 16.7816
5381 1 27.3711 19.551 15.2529
4579 1 25.4139 19.8332 13.3981
4584 1 25.5477 21.6949 15.1599
5378 1 27.3543 21.7076 13.4439
4659 1 25.1706 23.4273 13.5697
5461 1 27.1073 23.6135 15.0193
2582 1 16.1083 3.26286 17.2627
6182 1 30.6971 21.7292 17.0007
6181 1 30.3124 20.0758 15.085
5384 1 28.841 21.9253 15.1046
6178 1 30.6153 21.7463 13.1978
6261 1 30.5659 23.4641 14.939
5459 1 28.813 23.5214 12.9557
5383 1 28.6246 20.2321 17.087
6263 1 32.4737 23.8115 16.8885
6179 1 32.4488 19.7759 13.0854
6184 1 32.4217 21.5654 14.7558
6978 1 34.3522 21.5897 13.292
6982 1 33.8754 21.5082 16.9314
6183 1 32.3115 20.0933 16.6102
7063 1 35.9705 23.0141 16.7224
7862 1 1.5808 25.5864 16.7264
7859 1 3.42033 23.3322 13.1237
7858 1 1.47603 25.7186 12.9119
7941 1 1.27075 27.2429 15.0263
7864 1 3.07944 25.212 14.7165
7939 1 3.57947 27.4013 13.2145
4583 1 25.6332 20.1137 16.9539
7782 1 1.0323 21.798 16.8167
7139 1 -0.368552 27.2252 12.9371
7064 1 -0.483318 25.6898 15.0467
661 1 5.06562 23.6842 15.0171
5043 1 28.61 5.15511 -0.791383
658 1 5.21717 25.2886 13.1049
664 1 6.8182 25.7351 15.1917
739 1 7.06363 27.1218 13.2269
741 1 5.12843 27.2159 15.1574
662 1 4.82406 25.3216 17.005
7383 1 3.22465 2.34205 17.1172
4342 1 23.3454 10.7457 16.866
1462 1 8.65604 25.5127 16.7614
1458 1 8.7832 25.8346 12.8582
1464 1 10.4139 25.3258 15.0229
1539 1 10.7396 27.4446 13.2991
1541 1 8.94095 27.2353 14.9973
5765 1 32.6452 1.76894 -0.455423
2259 1 14.3496 24.2995 13.3325
2258 1 12.4126 25.8331 13.8074
2264 1 14.4544 25.6029 15.2621
2341 1 12.6024 27.65 15.2517
2339 1 14.365 27.0368 13.296
2343 1 14.4372 27.7562 16.6298
3862 1 19.939 25.7023 16.8134
3058 1 16.3342 25.3765 13.4971
3141 1 16.1763 27.6439 14.9866
3064 1 18.2734 25.6642 15.0702
3139 1 17.8373 27.183 13.1203
3062 1 16.0933 25.7667 16.7075
3858 1 19.7736 25.1351 12.9873
482 1 5.08084 18.3681 -1.09347
7382 1 1.33968 3.82535 16.9284
5621 1 31.1865 32.7591 16.7021
3941 1 19.7147 27.6596 14.7308
3864 1 21.7156 25.4172 15.0772
4741 1 23.6816 27.1923 14.9376
4658 1 23.6008 24.9937 13.4287
3939 1 21.4897 27.2587 13.2849
3042 1 16.0821 25.5992 -0.871512
4739 1 25.9563 27.3614 12.8931
5541 1 27.1904 27.5459 15.163
4664 1 25.6252 25.8485 14.9243
5458 1 27.0437 25.062 13.1629
5462 1 26.9685 25.3708 16.8293
6341 1 30.5834 27.1558 15.1709
5464 1 28.6834 25.3764 15.0063
6258 1 30.9315 25.2628 13.4234
5540 1 28.6313 27.3738 13.439
7943 1 3.37306 27.1981 16.8992
2422 1 16.049 33.1279 16.9801
1542 1 8.63663 29.3535 16.878
1624 1 14.534 33.0666 15.0545
6259 1 32.4265 23.3173 12.9935
7061 1 34.1973 23.184 14.9792
6264 1 32.6194 25.3962 15.2078
7141 1 34.5278 27.4881 15.1797
7058 1 34.1339 25.235 13.5301
6339 1 32.3646 27.0467 13.5655
6423 1 36.0528 31.2185 16.7434
6983 1 36.0584 20.1493 16.7696
7221 1 1.29445 30.9622 15.2408
7938 1 1.65182 29.3198 13.6667
7944 1 3.32729 28.9628 15.0961
7219 1 3.61336 31.2622 13.3796
7144 1 -0.507588 29.1397 14.8714
7223 1 3.35961 31.1306 16.6171
899 1 10.7782 34.6222 13.9743
742 1 4.88293 29.3234 16.8894
19 1 6.98578 30.9557 13.4073
21 1 5.34518 31.0126 15.0733
738 1 5.3404 29.124 13.0889
744 1 6.88207 28.9899 15.322
2263 1 14.5275 23.7726 17.1514
823 1 10.5626 31.0081 16.8828
1538 1 8.72458 29.1493 13.2322
1544 1 10.6446 29.161 15.2452
819 1 10.7563 31.0795 13.0442
821 1 8.91634 30.7902 14.7829
4983 1 28.7419 1.97524 16.9481
2342 1 12.5345 29.5331 17.0595
1621 1 12.643 31.018 15.0429
2338 1 12.3712 29.3301 13.3639
1619 1 14.3797 30.9711 13.1703
2344 1 14.349 29.1059 14.7541
1067 1 9.07313 3.35713 16.965
3142 1 16.0533 29.6451 16.8299
3138 1 16.1734 29.2549 13.3416
2421 1 15.8221 31.1722 15.1773
3144 1 17.9843 29.0921 15.2436
2419 1 17.9963 30.9541 13.5574
3938 1 20.1749 29.4266 13.3659
3221 1 19.9807 31.2684 15.0372
3944 1 21.5486 29.5514 15.0711
3219 1 21.9187 31.105 13.2953
4738 1 23.3232 28.8641 13.4581
5542 1 27.4144 29.021 16.7975
4021 1 23.2419 31.1534 15.379
4821 1 27.0563 31.0272 15.211
4019 1 25.3274 29.0825 14.9592
4024 1 25.2111 31.1493 13.2811
5538 1 27.06 29.5363 12.9917
818 1 8.43396 32.9824 13.4417
6342 1 30.487 29.0224 16.3451
5544 1 28.7124 29.3074 14.855
4819 1 30.8602 31.0408 14.8788
6338 1 30.6869 29.0471 13.5264
5361 1 28.9618 31.2924 13.0991
2642 1 15.9344 7.28518 -0.823042
6419 1 36.049 30.709 13.3828
6421 1 34.4089 30.7916 14.9483
6344 1 32.4757 29.1349 15.0814
7138 1 34.3125 28.7766 13.3124
5619 1 32.605 30.8974 13.0737
5623 1 32.3485 30.8057 16.7078
7301 1 -0.29463 34.6552 13.209
6424 1 -0.422126 32.7779 14.8576
22 1 5.08105 32.7956 16.7864
7222 1 1.41334 32.5933 16.8057
2563 1 17.8435 1.86574 -0.706571
7224 1 3.09121 32.9158 15.1361
7299 1 2.91623 34.6651 13.4692
6499 1 1.13135 34.5898 15.2928
7218 1 1.4619 32.8212 13.4382
5463 1 28.9855 23.5717 17.002
1069 1 8.74823 10.5785 17.045
24 1 6.67805 33.0286 14.9709
99 1 6.69965 34.8207 13.4174
18 1 4.97462 32.8744 13.2171
101 1 4.77228 34.6016 15.2069
824 1 10.3456 32.8152 15.3291
499 1 8.55796 18.0716 16.5649
3622 1 20.3441 14.9162 16.9989
504 1 8.68299 14.1745 16.7051
2423 1 17.9704 31.0717 16.7317
3863 1 21.8786 23.35 17.1073
3143 1 18.2395 27.5524 16.809
4982 1 27.247 3.96439 16.9143
663 1 6.56255 23.8965 16.9849
6582 1 34.4711 3.42597 17.033
3462 1 19.6337 7.06572 17.0076
3623 1 21.7028 12.3617 16.9092
1703 1 14.1804 34.9029 16.8855
1623 1 14.1986 31.0658 17.0068
5062 1 27.407 7.25618 16.5739
3782 1 19.6974 21.6326 16.6851
7305 1 2.88914 34.5028 16.8183
2983 1 17.8149 20.1097 16.7318
7542 1 1.17641 10.8643 17.0876
2662 1 16.1087 7.03956 17.0178
3302 1 19.7014 -0.385174 16.9252
2823 1 18.4922 13.0349 16.92
7863 1 3.16199 23.7066 16.7709
6028 1 32.3451 16.4944 16.9026
2503 1 17.9379 34.8638 16.9064
4423 1 25.4356 12.6339 16.8089
5143 1 29.0622 8.76065 17.0769
2583 1 20.1093 3.41978 16.897
4022 1 23.6123 32.8449 16.8963
3551 1 19.7531 10.5895 17.0242
2502 1 17.9151 1.71151 16.8639
6023 1 32.8446 12.7485 17.0182
2822 1 16.2683 14.585 17.1468
2182 1 12.3074 22.1993 17.1595
2023 1 14.2643 12.7398 16.7073
3203 1 21.458 30.8517 -1.08667
2882 1 14.5278 20.1464 -0.847562
3123 1 17.564 27.4352 -1.04863
3842 1 19.7396 25.4489 -1.06926
6957 1 8.92056 18.5114 -0.847702
5842 1 30.9086 7.42778 -0.952761
1602 1 12.6589 32.6918 -1.03714
4721 1 23.2122 25.4378 -1.1312
4248 1 25.1367 5.383 -0.800047
7843 1 3.64257 23.4138 -1.05315
5522 1 28.7874 27.2774 -1.05256
6722 1 34.7367 10.8081 -0.747402
7385 1 1.06031 1.54831 18.7702
7306 1 1.166 -0.575757 20.3222
105 1 2.96192 -0.143087 18.631
7392 1 3.11596 1.52721 20.2109
6587 1 35.9033 1.38497 20.4379
6588 1 -0.497972 3.37735 18.8947
6508 1 35.9945 -0.194358 18.566
106 1 6.50589 1.42454 20.7555
186 1 5.19462 2.02415 19.0502
110 1 4.70772 -0.0907033 20.3858
108 1 6.88091 -0.168518 18.4902
902 1 8.60358 1.60784 18.9004
989 1 10.2972 1.61001 20.365
912 1 7.98689 -0.334625 20.4381
908 1 10.4719 -0.473663 19.0209
986 1 10.6846 3.51694 18.8049
192 1 8.67225 3.27137 20.5729
1788 1 12.5885 1.88099 19.0481
2506 1 14.2391 1.76977 21.0741
1708 1 14.2877 -0.301393 18.9737
987 1 12.0968 -0.373841 21.0929
1782 1 14.1141 3.77845 18.951
988 1 12.1691 3.38892 20.7548
2585 1 15.9341 1.5939 19.1375
1707 1 15.8386 -0.135867 20.8123
2508 1 17.7846 0.332063 18.6524
2587 1 17.7319 1.54453 20.8211
3230 1 19.9669 -0.114204 20.4465
2588 1 18.3684 3.31118 19.3454
2104 1 15.952 18.4042 17.1527
3385 1 19.9771 1.63857 18.9495
3308 1 21.6794 -0.0696903 18.9636
3387 1 21.5443 1.82405 20.8662
4109 1 23.8963 -0.00700845 20.6885
3388 1 21.9435 3.38186 19.0819
4185 1 23.5593 1.73703 19.3292
4186 1 23.4869 3.39075 20.7786
3347 1 -0.546787 35.3766 34.4261
4187 1 25.6784 1.99293 20.7676
3392 1 27.6293 0.17533 20.6822
4985 1 27.3759 2.04585 19.2001
4108 1 25.5536 0.107135 18.9751
4986 1 27.3573 3.69038 20.5861
4188 1 25.5783 3.31552 18.9551
5221 1 28.7903 12.3778 17.2214
4908 1 29.2011 0.141378 18.8934
4909 1 29.1549 2.01078 20.8166
5785 1 30.9924 1.87727 18.7371
5706 1 30.9183 0.18384 20.4592
5067 1 30.9288 3.71627 20.4222
4988 1 29.0771 3.80399 18.8187
4103 1 25.4203 35.1424 17.4749
2935 1 35.3575 35.8917 31.7891
5708 1 32.4153 0.0673726 18.7464
5787 1 32.6581 2.11355 21.0403
5707 1 34.1166 0.0785135 20.4569
6585 1 34.2672 1.66917 18.7206
5788 1 32.7543 3.39492 18.7642
6586 1 34.6447 3.64111 20.6671
6903 1 35.9038 16.6882 17.1254
7388 1 3.21027 3.95021 18.8935
6674 1 1.72913 3.99215 20.3636
7465 1 1.17858 5.60192 18.893
277 1 1.30289 7.24403 20.5647
7467 1 3.18797 5.71427 20.4844
6668 1 -0.577662 6.90678 18.6966
6667 1 35.911 5.53685 20.8415
7468 1 3.22852 7.36926 18.775
182 1 6.95669 3.52123 18.443
188 1 5.00614 3.57929 20.8368
267 1 6.85009 5.17954 20.5752
265 1 5.11213 5.52168 18.9905
268 1 6.90758 7.04752 18.8525
2320 1 4.92812 7.45641 20.6662
4990 1 33.2508 35.1402 29.5814
985 1 8.74889 5.23489 19.0576
1079 1 10.5844 5.15985 20.6333
1862 1 10.437 6.6914 18.7383
1065 1 8.58862 7.10822 20.8037
1947 1 12.3809 5.37056 18.8508
1865 1 13.9032 5.40451 20.7989
1945 1 13.8866 7.60635 18.9976
990 1 12.1602 7.3296 20.9012
2668 1 20.073 3.75836 20.5935
2586 1 16.1447 3.37057 20.8704
2665 1 16.2387 5.1851 18.9152
2746 1 18.0973 5.38994 20.6045
2667 1 17.7216 7.10285 18.8469
3546 1 15.8741 6.92252 20.2898
3465 1 19.7564 5.34238 18.5459
3386 1 19.8619 6.99361 20.5975
3473 1 21.5809 5.61458 20.4963
4265 1 23.7333 4.75916 18.8825
4266 1 23.6703 6.75942 20.1756
3468 1 21.825 7.25696 18.7048
3170 1 16.6564 18.134 35.2823
4272 1 25.5258 5.26106 21.0659
5065 1 27.1574 5.55431 18.3549
4268 1 25.6123 7.05592 18.8081
5066 1 27.0153 7.23443 20.8874
6535 1 13.7812 14.4498 35.0447
5070 1 29.1349 5.72464 20.6148
5865 1 30.9523 5.28172 18.7729
5068 1 28.9183 6.97161 18.8241
5866 1 30.8713 7.217 20.2509
6608 1 33.0982 31.5785 32.2126
2283 1 22.7563 35.9456 35.1917
5867 1 32.5781 5.21788 20.7351
6665 1 34.3352 5.09607 18.8062
5868 1 32.9639 6.82632 18.4576
6666 1 34.3101 7.40831 20.3671
7545 1 1.29853 9.10699 18.767
266 1 1.35416 11.0089 20.5961
7627 1 3.2155 10.7723 18.3773
6747 1 -0.341097 9.04131 20.7677
6748 1 -0.447052 11.1718 18.9614
6676 1 3.01142 8.98644 20.7429
345 1 5.10121 9.10068 18.8145
440 1 6.87907 9.13831 20.4496
1066 1 6.94107 10.9869 18.4872
7630 1 5.11786 10.7954 20.5882
272 1 8.98973 8.78643 18.8288
343 1 10.3767 8.56576 20.605
1148 1 10.6017 10.5107 18.6535
7636 1 8.94011 10.8303 20.4006
1950 1 11.765 8.61585 18.6924
1868 1 14.2029 8.94331 20.7332
1948 1 13.8131 10.8711 18.8192
1229 1 12.4402 10.5731 20.882
2745 1 15.9901 9.21297 18.431
3553 1 15.7591 10.7741 20.4949
2672 1 17.7036 9.01488 20.1478
3545 1 17.6926 10.9473 18.5734
3470 1 19.4182 8.90821 18.6168
3471 1 19.8791 10.7379 20.3327
3466 1 21.9161 8.28981 20.6266
3548 1 23.7636 9.06372 18.5723
3542 1 21.7289 10.3535 18.9609
4346 1 23.5219 10.9006 20.7404
3321 1 28.7192 25.2471 34.9649
4345 1 25.3533 9.31619 20.4952
5145 1 27.1904 8.91 18.8875
5227 1 27.0667 10.8671 20.6177
4348 1 25.7172 10.9323 18.6193
3311 1 33.3756 34.8453 32.0005
6540 1 34.8282 33.0608 31.7045
5147 1 29.0166 8.74347 20.6582
5945 1 30.8159 8.99911 18.6602
5947 1 30.9781 10.796 20.598
5148 1 28.5186 10.7304 18.873
6827 1 32.6817 9.00049 20.1209
5948 1 32.7077 10.8369 18.4201
6745 1 34.7094 9.32587 18.6446
6672 1 34.4429 11.0328 20.5279
7625 1 1.53831 12.7873 18.6632
7626 1 1.12123 14.495 20.4676
7632 1 3.25125 14.1566 18.6404
7622 1 35.9766 14.1626 18.6929
6828 1 36.0942 12.6942 20.8796
7705 1 1.36978 16.3843 18.6194
342 1 3.21194 12.9533 20.6441
425 1 4.93051 12.3035 18.7461
7631 1 7.11698 13.0353 20.8631
352 1 5.11312 14.3889 20.3172
507 1 6.82218 14.0915 18.8547
423 1 8.80923 12.6948 18.6304
1149 1 10.7972 12.4715 20.4173
1225 1 8.9138 14.5547 20.291
1305 1 10.6799 14.3947 18.335
508 1 8.97166 16.2427 18.3071
1228 1 12.6715 14.5724 20.3803
2025 1 12.2924 12.7889 18.4267
2027 1 14.1491 12.6566 20.5373
2112 1 14.0945 14.2167 18.5478
1226 1 15.7272 12.5396 18.7899
2036 1 15.7666 14.8231 20.3011
2039 1 17.7079 12.3446 20.3383
2825 1 18.0639 14.3609 18.9796
3625 1 19.8406 12.4621 18.6961
2906 1 19.849 14.6204 20.615
3626 1 21.5632 12.2633 20.4104
4425 1 23.3563 12.3204 18.6637
3707 1 21.8117 14.5897 19.1498
5305 1 23.5149 14.3152 20.7087
4427 1 25.2794 12.3738 20.6662
5225 1 27.1988 12.8301 18.8237
4428 1 25.2407 14.2576 18.8727
4507 1 26.9496 14.2683 20.7961
6029 1 28.7005 12.655 20.8425
5223 1 30.3879 12.66 19.0789
5229 1 30.5899 14.9657 20.1664
5228 1 28.7544 14.7815 18.6058
6025 1 32.5908 15.0802 18.8059
6027 1 32.3327 13.0911 20.1492
6825 1 34.2678 12.8776 18.8205
6826 1 34.1939 14.8255 20.776
7706 1 1.23021 18.0436 20.3508
6908 1 -0.480061 18.5811 18.7635
6907 1 36.0411 16.3352 19.7683
426 1 3.1296 15.9729 20.1144
7708 1 3.27884 18.0572 18.8419
505 1 5.2495 15.9235 18.7576
587 1 6.59123 17.8711 18.174
506 1 5.0811 17.9373 20.4093
511 1 7.01855 16.2999 20.5559
1311 1 7.24616 19.6567 20.2794
675 1 9.1621 17.7426 20.1942
2105 1 10.7964 16.1789 20.3742
1385 1 10.7697 18.2025 18.2462
2191 1 14.2533 16.495 20.2084
348 1 12.3172 16.2406 18.3037
1308 1 12.176 18.1164 20.2755
2181 1 14.329 18.4343 18.6239
2985 1 14.0483 19.7497 20.4919
2910 1 15.861 18.2396 20.4194
2102 1 16.1562 16.5583 18.8935
2828 1 18.0688 16.328 20.3014
2905 1 18.078 18.2268 18.4844
3787 1 19.5996 18.3856 20.7355
1150 1 19.9368 16.2793 18.9271
3785 1 18.1009 20.2968 20.7302
3552 1 21.6306 16.282 20.6723
4589 1 23.1529 17.9151 20.8766
3708 1 21.5614 18.3401 19.2422
4505 1 23.3337 16.2496 18.5594
4354 1 24.9218 16.3955 20.6311
5307 1 26.7342 16.2678 18.8655
5309 1 26.778 17.9485 20.6786
4508 1 25.3718 18.2829 18.9424
5308 1 28.6188 17.975 18.5011
5226 1 28.6844 16.4438 20.8727
6105 1 30.531 16.7914 18.7111
5387 1 30.3167 18.0276 20.9185
6108 1 32.2078 18.3673 18.612
6107 1 32.5846 16.5524 20.5351
6905 1 33.9736 16.7843 18.7182
6909 1 34.4309 17.9472 20.9569
7785 1 1.48829 19.7312 18.3251
7786 1 1.19602 21.5282 20.4715
586 1 2.93275 19.7456 20.3686
6988 1 36.1363 21.7171 18.7524
7788 1 2.95671 21.7618 18.5627
6987 1 36.013 20.0205 20.783
7867 1 3.26897 23.557 20.4589
7067 1 -0.249153 23.5872 20.3649
585 1 4.93872 19.8826 18.4883
7711 1 4.77013 21.9106 20.4072
588 1 6.70064 21.5828 18.7308
665 1 4.90338 23.7731 18.9413
667 1 6.66427 23.6208 20.4933
7329 1 33.7059 33.5711 34.0479
1386 1 8.6747 19.8164 18.1431
2189 1 10.2899 19.8428 20.3257
591 1 8.63161 21.6758 20.3856
1467 1 10.3111 21.9399 18.7166
1470 1 10.2685 23.5867 20.5058
1465 1 8.50821 23.7223 18.4446
1463 1 12.384 20.1778 18.757
2108 1 12.1117 21.9617 20.3972
2188 1 14.4175 21.8867 18.8734
2267 1 14.3492 23.9306 20.3726
2265 1 12.4869 23.9686 18.6914
2990 1 16.4976 22.1186 20.4986
4831 1 29.067 35.7718 31.8884
2902 1 16.1416 20.295 19.0149
2988 1 18.1651 21.8493 18.5049
3066 1 18.1815 23.4452 20.2977
3065 1 16.5962 23.9951 18.4752
2987 1 19.8675 21.7242 20.8158
3865 1 20.0118 23.4567 18.7951
3827 1 29.3131 33.4855 32.9387
3702 1 20.1463 19.988 18.7107
4585 1 23.5953 19.9006 19.1631
2914 1 21.7267 20.3875 20.4627
3788 1 21.5151 21.7334 18.6809
4586 1 23.4895 22.1038 20.4416
3867 1 21.6363 23.5962 20.5904
4665 1 23.5776 24.0572 18.6883
5385 1 27.1748 20.0359 18.9304
4587 1 25.3244 20.301 20.7488
4588 1 25.2805 22.0526 18.5694
5392 1 26.8975 21.854 20.3852
4668 1 26.7896 24.0481 18.8701
4667 1 25.1271 23.7115 20.5362
6271 1 28.6375 20.0016 20.6033
6185 1 30.3384 20.0221 18.8987
5465 1 28.7208 21.9195 18.9621
6186 1 30.0915 21.8521 20.8978
5467 1 28.8413 23.6863 20.6499
6265 1 30.7208 23.57 18.6715
6985 1 34.1559 19.9736 19.0415
6188 1 32.2067 21.5188 18.9075
6187 1 32.6606 19.6841 20.7214
6986 1 34.3978 21.7342 20.8866
6267 1 32.4797 23.7702 20.2539
7065 1 34.339 23.3657 18.7687
7865 1 1.61347 23.7162 18.6367
7866 1 1.19468 25.46 20.0957
7945 1 1.13534 27.0918 18.6172
7868 1 3.15974 25.49 18.7217
7068 1 -0.54177 24.9707 17.9786
7147 1 -0.304668 27.2932 20.3307
7947 1 3.03003 27.3862 20.1666
666 1 5.07466 25.605 20.3677
668 1 6.4857 25.6956 18.7113
745 1 4.84292 27.4251 18.7596
747 1 6.91734 27.4676 20.3346
1466 1 8.56443 25.3618 20.3054
1472 1 10.4925 25.7778 18.3977
1546 1 10.0655 27.5215 20.1732
1545 1 8.45142 26.9225 18.4051
2266 1 11.8879 25.6888 20.354
2268 1 14.3579 25.8341 18.4994
2345 1 12.4416 27.2377 18.4165
2347 1 14.0058 27.4085 20.2093
2186 1 16.1781 25.5344 19.9409
3068 1 18.3612 25.3662 19.0481
3145 1 16.2616 27.5706 18.1003
3945 1 18.4399 27.2987 20.4846
3947 1 19.9772 27.2999 18.3423
3151 1 19.963 25.4679 20.5293
3866 1 21.7959 25.4949 18.661
3868 1 23.465 25.7455 20.5819
4745 1 23.3511 27.3921 18.4494
3872 1 21.3857 27.6105 20.1595
4743 1 25.0558 25.5703 18.8702
5466 1 26.7258 25.781 20.5842
5545 1 27.247 27.1805 18.5448
4747 1 25.1959 27.6004 20.1058
6438 1 31.8284 32.1892 34.6572
5468 1 29.0188 25.5295 19.1001
6266 1 30.8517 25.6881 20.3908
6345 1 30.6033 27.2224 18.5174
5547 1 28.6086 27.3303 20.6422
6268 1 32.7157 25.6856 18.4937
6347 1 32.753 27.2136 20.4747
7066 1 34.7277 25.8355 20.3304
7145 1 34.4409 27.2833 18.4792
7946 1 1.13552 28.9737 20.515
7225 1 1.40366 30.7555 18.2799
7948 1 3.06503 29.074 18.6936
7227 1 3.08235 30.6085 20.506
7148 1 -0.5794 29.0378 18.4119
6427 1 36.0105 30.9564 20.1472
746 1 4.73285 29.0287 20.5859
748 1 6.88164 29.1317 18.3933
25 1 4.96736 30.793 18.6656
27 1 6.48226 30.9469 20.3376
752 1 8.63123 29.5343 20.7047
1548 1 10.515 29.2897 18.4343
826 1 8.32577 30.9295 18.626
827 1 10.431 31.2166 20.3274
1625 1 12.1644 31.2516 18.5007
2346 1 12.0211 29.1123 20.54
2348 1 14.275 29.1133 18.7374
1632 1 14.317 30.797 20.3229
2425 1 15.944 30.9984 18.6455
2352 1 16.1917 28.9026 20.1623
3148 1 17.8187 29.2204 18.5423
2427 1 17.7479 31.047 20.3019
3225 1 19.6134 31.037 18.7932
1018 1 23.2686 30.5501 35.0495
1960 1 5.53349 3.22041 34.8616
3147 1 20.2073 29.7091 20.6503
3948 1 21.6869 29.4013 18.4516
3946 1 21.7052 31.4664 20.3238
3227 1 23.5139 31.2188 18.7015
4746 1 23.3503 29.276 20.0944
6371 1 32.5448 12.3041 35.1144
3499 1 23.382 7.34166 34.5748
4748 1 25.4416 29.1152 18.3969
5546 1 27.1521 29.2771 20.4688
4825 1 27.4695 31.1533 18.2183
4027 1 25.5481 30.9539 20.1471
5548 1 29.1079 28.9849 18.3198
6346 1 30.5744 28.762 20.3275
5552 1 29.2697 30.9454 19.9499
5625 1 30.9087 31.0038 18.1855
5627 1 32.3299 30.7402 20.173
6348 1 32.3259 28.9097 18.4907
7146 1 34.4366 28.9716 20.2957
6425 1 34.1226 30.8222 18.6569
7226 1 1.00093 34.7213 18.3828
7228 1 1.25873 32.3649 20.3809
6507 1 35.8534 34.7887 20.5155
6428 1 36.0892 32.9891 18.892
189 1 2.64001 34.6028 20.238
7307 1 3.29483 32.5702 18.4164
107 1 6.27956 34.6053 20.4442
28 1 4.69059 34.7578 18.5203
26 1 4.43973 32.817 20.7567
825 1 6.91911 33.0993 18.7458
907 1 10.8047 34.2995 20.5127
829 1 8.35967 33.2176 20.3478
905 1 8.73777 34.6741 18.6075
828 1 10.5325 32.9448 18.4343
1626 1 12.6208 32.7051 20.2261
1705 1 12.537 34.7095 18.5251
1628 1 14.1984 33.0058 18.5715
1706 1 13.983 34.5817 20.685
2426 1 15.939 32.6402 20.1319
2507 1 15.7199 34.6932 18.5487
2509 1 17.886 34.8814 20.4581
2428 1 17.4248 33.1329 18.4794
3305 1 19.3886 34.7882 18.5779
3226 1 19.4356 32.9672 20.2777
4105 1 23.4131 35.081 18.8397
3306 1 21.5537 34.524 20.5312
3228 1 21.5052 33.225 18.6812
4026 1 23.7003 33.0851 20.2269
4754 1 25.968 35.0869 20.6386
4905 1 27.4234 34.6252 18.864
4028 1 25.4794 32.8418 18.5188
4826 1 27.5792 32.6555 20.4573
5871 1 31.4111 34.5457 33.4698
7150 1 29.1648 35.2073 34.2215
4907 1 29.3437 35.0343 20.9919
5622 1 30.9312 34.8149 18.9386
4828 1 29.3146 33.0012 18.6417
4827 1 31.1382 32.5184 20.4806
5628 1 32.4024 32.9946 18.7709
5705 1 32.4503 34.8481 20.5551
6505 1 34.215 34.6178 18.8691
6426 1 34.1924 32.5358 20.1904
116 1 1.45886 1.69361 21.6277
7472 1 -0.22243 3.46293 26.142
7394 1 -0.287283 -0.347615 22.2586
109 1 2.77747 -0.339347 22.1128
7401 1 1.56095 -0.336934 24.2684
7312 1 -0.133192 1.31392 23.8474
6590 1 34.675 3.55968 27.8648
5875 1 -0.245059 3.23664 21.9232
7399 1 1.14646 3.12632 24.2686
5563 1 3.16575 3.45281 25.6126
2913 1 2.91156 -0.561835 26.1848
4838 1 3.13885 1.47075 24.3004
5633 1 4.6831 -0.447256 24.3225
7386 1 4.57658 1.47304 22.4214
909 1 6.83301 1.35408 24.0014
5716 1 4.88326 1.25598 26.0128
5017 1 6.58912 36.029 25.809
2757 1 6.44862 2.8216 25.9518
112 1 6.08148 -0.31929 22.175
1630 1 10.0866 -0.442272 22.3838
187 1 8.78256 1.62494 22.1482
3401 1 10.603 1.57455 24.3013
32 1 8.4899 -0.414114 24.4325
1074 1 8.63755 1.52129 26.0646
3488 1 10.2754 3.71821 22.5225
136 1 10.4721 3.54368 25.6955
606 1 12.0439 1.76423 22.4341
3315 1 12.2523 -0.507066 23.8847
916 1 13.9613 1.39092 23.8581
1560 1 14.0234 -0.51862 25.6143
3505 1 12.5171 1.21419 25.8757
1712 1 14.0261 -0.526093 22.5189
2510 1 16.1678 1.91001 22.6988
4120 1 17.8204 1.96357 24.2547
2676 1 17.9524 0.102881 22.9004
1823 1 15.6295 1.47616 25.69
3957 1 20.0656 0.156493 23.9792
1877 1 17.7208 -0.34674 25.7658
2594 1 19.8729 2.01489 22.4818
1720 1 21.6691 -0.227133 22.4714
4115 1 22.0997 1.37293 24.5937
4364 1 23.3921 1.43717 22.2786
4189 1 23.7201 -0.557457 24.0551
5402 1 24.0369 1.3752 26.2225
4112 1 25.121 1.44893 24.1722
4116 1 25.6426 0.147175 22.029
4906 1 27.1943 2.14297 22.6505
4987 1 27.2611 -0.00806722 23.7993
6110 1 25.5988 -0.35722 25.748
5069 1 27.1932 1.76119 25.4246
4192 1 25.2402 3.632 22.6348
148 1 29.1389 2.21189 24.2932
6593 1 29.1078 -0.117825 22.9729
7481 1 30.8713 1.57349 22.6637
914 1 31.1729 2.0058 25.6012
5560 1 31.1341 -0.304227 24.1511
7877 1 29.3081 -0.0384525 25.648
3258 1 30.7305 3.97425 23.6955
1476 1 32.8398 1.51964 24.1144
6506 1 32.6506 -0.275763 22.2483
5709 1 34.4904 1.53008 22.2425
7260 1 32.4954 -0.150032 25.8929
3027 1 34.9346 1.43729 25.7551
3730 1 34.9625 3.14302 23.7244
4992 1 32.6668 3.6094 22.491
5553 1 33.1942 3.19937 26.0692
190 1 3.07642 3.49889 22.4842
7470 1 1.68353 5.62184 22.2105
7552 1 3.31436 5.15701 23.9347
222 1 1.57882 7.09934 24.2439
6618 1 1.38111 5.13594 25.8386
5879 1 -0.136538 5.32024 23.5972
6592 1 -0.0522452 7.52562 22.632
7588 1 3.29605 6.7712 25.9952
1250 1 -0.492388 6.53895 25.5086
270 1 3.26062 7.27805 22.5731
196 1 7.02738 3.22681 22.3908
7414 1 5.15989 3.38439 24.1422
269 1 5.24081 5.4032 22.3262
347 1 6.88628 7.48373 22.5432
1487 1 5.41441 5.27727 25.6857
5249 1 7.21622 4.83513 24.3796
273 1 5.52248 7.21195 24.1238
281 1 8.60064 3.06204 24.4623
997 1 8.7433 5.32156 22.3317
271 1 10.3775 5.31436 24.0184
445 1 8.70152 4.67556 26.4505
1949 1 10.1758 7.22158 22.4332
2439 1 10.0914 6.81684 25.7488
1791 1 8.42777 7.15895 24.2616
34 1 12.2326 3.32491 24.3148
1866 1 14.2511 3.57449 22.9056
3394 1 12.2156 5.15276 26.019
1867 1 12.2341 5.54365 22.614
1874 1 14.0954 5.67782 24.3146
1062 1 12.4986 7.36171 24.2792
2592 1 14.8909 7.23838 22.4234
2596 1 18.0306 3.44497 22.5195
374 1 16.0608 3.2299 24.3925
201 1 15.7955 5.3021 25.7464
834 1 19.487 3.38711 24.3531
5078 1 17.8372 3.5728 25.9862
2512 1 16.3471 7.37384 24.4225
3396 1 16.0054 5.39682 22.4884
835 1 17.6138 5.2493 24.3345
3549 1 17.7717 7.2021 22.4034
4193 1 19.7612 5.39361 23.0456
4110 1 19.4288 5.63037 25.8632
4351 1 19.6026 7.30379 24.2471
7978 1 21.1326 3.28237 25.9251
2201 1 23.608 3.22538 24.4747
2511 1 21.6905 3.71436 22.7565
6601 1 21.3938 5.47561 24.6053
5567 1 23.4403 5.2551 22.3315
5953 1 21.5335 6.98699 22.5031
7259 1 21.6823 7.2499 26.3823
3822 1 23.463 5.09411 25.9367
2109 1 23.6293 7.00451 24.4224
4434 1 25.3637 3.87435 26.1126
5957 1 27.606 4.11358 24.3138
4996 1 25.3672 7.33163 22.5297
4989 1 27.3392 5.61416 22.372
3156 1 25.3971 5.45675 24.1216
3310 1 25.5013 6.95374 26.099
6514 1 27.123 7.52894 24.1855
1393 1 27.4174 5.66524 25.809
4107 1 29.14 3.86115 22.3175
5880 1 29.4756 5.72771 24.376
4994 1 30.9751 5.79125 22.3155
5146 1 29.2529 7.37289 22.5303
838 1 31.1412 7.56449 24.218
4764 1 28.8603 7.65414 25.8728
4708 1 30.2026 4.36281 26.1201
6930 1 31.0193 6.6866 26.4192
6589 1 32.6677 5.47817 24.7782
5872 1 34.2782 5.50639 22.5605
5425 1 33.1803 7.68469 26.2435
5792 1 32.5876 7.59926 22.1376
5724 1 34.6829 4.75481 25.4066
6671 1 34.447 7.041 24.407
7466 1 1.27346 9.32812 22.2454
7546 1 1.53679 11.0206 23.7101
7479 1 3.46845 8.86208 24.2864
7551 1 -0.374125 9.51548 23.8987
6756 1 -0.119829 11.1839 25.6429
7547 1 36.1309 11.0465 22.2056
349 1 3.53607 10.9658 22.3783
1312 1 5.16642 9.24441 22.1276
3656 1 6.7882 9.13054 24.3439
7475 1 6.77427 11.0053 22.3332
6764 1 5.16545 11.3554 24.7196
6844 1 6.22603 9.36361 26.6864
2113 1 10.483 10.5586 22.1988
353 1 8.60977 9.00264 22.428
913 1 10.2055 9.02645 23.861
1147 1 8.66705 10.8872 23.8746
1477 1 10.5659 10.7871 25.7212
3555 1 14.2669 7.3523 26.3608
430 1 14.2255 10.8142 22.3345
7010 1 12.4048 8.92218 22.6882
6851 1 12.265 11.3224 24.2257
1872 1 14.4749 8.74701 24.3127
2589 1 12.4689 8.97345 25.671
3726 1 13.7126 11.0296 26.0598
918 1 17.8004 7.41228 26.0592
3472 1 15.8932 9.25456 26.1018
2748 1 15.6202 11.05 24.4251
1071 1 16.2385 9.642 22.4224
3469 1 18.3376 10.286 22.7964
4998 1 17.8791 9.00503 24.4823
3706 1 19.6705 10.8738 24.3927
6680 1 19.6276 8.71451 21.7639
4775 1 19.7685 8.90805 25.7436
3467 1 21.7181 8.62345 24.4022
4352 1 23.3496 8.99161 22.1095
2832 1 21.3516 10.5269 22.7191
1095 1 24.0415 9.12233 26.1626
2194 1 21.3727 10.9007 25.8233
4130 1 23.2985 11.0745 23.9554
2836 1 26.9725 9.21993 22.2379
5400 1 25.1802 9.25641 24.2751
3797 1 27.0569 10.9644 24.2013
2991 1 25.5618 10.7961 26.6665
4347 1 25.101 10.6746 22.4442
6356 1 27.0949 9.1481 25.6955
5951 1 29.06 9.50216 24.1976
5794 1 30.9953 9.32182 22.2099
6038 1 31.1877 10.9874 24.3181
4270 1 28.8715 10.5777 22.1895
7716 1 28.7598 11.0417 26.161
4916 1 32.9293 9.18221 24.1753
5952 1 32.9825 11.2186 22.3597
6750 1 34.3819 8.92316 22.0988
7391 1 34.462 11.4637 24.2394
3732 1 35.3909 8.82199 25.907
6031 1 32.8008 10.7019 26.1611
6111 1 -0.422377 14.9993 22.3021
346 1 1.41931 12.9921 22.2433
6120 1 1.15562 15.1685 24.3589
4194 1 -0.191586 13.1242 23.7768
3878 1 1.60943 13.1595 25.7103
6832 1 3.32656 14.3715 22.2654
1068 1 3.56064 12.973 24.1745
5009 1 -0.0186333 15.1292 26.4365
4439 1 3.57916 14.3124 26.2881
2275 1 5.18801 12.6566 22.3159
7313 1 5.44553 14.5312 23.8926
7476 1 7.68079 13.101 24.24
2284 1 7.33645 14.7746 22.4654
7428 1 7.14263 14.7212 26.1083
7639 1 5.75421 13.2299 26.1163
2666 1 9.04801 12.7027 22.1082
510 1 9.50506 15.041 24.1475
1315 1 10.5191 12.698 24.1557
596 1 10.5517 14.5056 22.2253
433 1 10.8149 15.0743 26.1273
2804 1 12.312 12.3736 22.3865
3493 1 12.2491 14.4906 24.3442
2751 1 14.0383 12.7585 23.803
2747 1 14.2668 14.7901 22.4044
3077 1 14.209 14.6465 26.0163
7589 1 12.0566 12.9181 26.1755
2028 1 15.8124 12.5025 22.1037
3721 1 16.1241 14.2123 23.8743
5234 1 15.9834 12.6335 26.1527
2114 1 17.6072 14.2491 21.9805
2838 1 18.0159 12.4673 23.6451
3547 1 19.4853 12.5213 21.846
1152 1 19.3472 12.9743 26.0193
1316 1 19.4089 14.405 23.584
4433 1 21.5517 14.2407 22.2117
4432 1 21.2628 13.0054 24.097
5876 1 23.3619 14.2917 24.1351
4431 1 23.6588 12.6262 22.3718
3269 1 21.2003 14.6391 25.7387
3731 1 23.2116 12.9129 25.7374
6034 1 26.6701 12.6007 22.5522
3007 1 25.254 14.3109 22.4097
4673 1 25.205 12.4148 24.7276
5310 1 27.2728 14.14 24.0999
1010 1 25.4561 14.6033 25.8662
6841 1 26.9719 12.8377 26.3491
6831 1 29.156 12.3347 24.0052
5946 1 30.886 12.8682 22.1691
6994 1 30.7295 14.3083 24.2908
2916 1 28.8103 14.5881 22.1091
3711 1 31.7726 13.2573 26.4811
225 1 29.0266 13.7159 25.8374
7873 1 32.6899 12.9741 24.3281
6026 1 32.3681 14.9749 22.6686
6746 1 34.3544 13.488 22.7902
5232 1 34.4906 14.5586 24.8969
2920 1 33.1538 15.0165 27.0473
518 1 34.04 12.636 26.3532
593 1 1.72366 16.2736 21.9662
7789 1 1.52292 17.9156 24.1608
355 1 2.25163 16.3764 26.2956
7409 1 3.33089 15.8501 24.2517
429 1 36.0845 18.6513 25.8954
351 1 36.0259 16.5699 24.5993
6912 1 36.1297 18.1181 22.685
291 1 1.78103 19.7037 25.9329
2842 1 4.91671 16.1461 25.5587
431 1 3.25996 18.0064 22.5585
7804 1 3.58047 17.9532 25.3397
1473 1 7.14107 17.9125 22.4146
509 1 5.07753 15.9289 21.9097
6360 1 5.39433 17.5731 23.7265
7723 1 7.37822 16.2178 24.5944
4848 1 6.67452 18.3184 25.512
6749 1 3.18106 19.9997 23.826
4525 1 4.83765 20.0289 25.6733
1332 1 10.8391 16.8218 24.1133
7712 1 8.77878 18.3217 24.3284
432 1 9.11021 16.4173 22.1715
1387 1 10.4292 18.5477 22.3168
6675 1 10.8646 18.2295 25.9671
1232 1 8.95514 16.4961 26.3182
930 1 13.8254 16.3836 24.1926
1564 1 12.4424 18.4667 23.9353
1233 1 12.1432 16.4299 22.3164
2183 1 13.8533 18.1277 22.4584
5319 1 12.7262 16.811 25.9634
1469 1 14.3656 18.5219 25.8227
133 1 14.4678 20.0332 23.7449
2107 1 16.196 16.4159 22.4234
2989 1 16.0544 18.2921 24.0171
6919 1 16.0874 16.5311 25.4719
517 1 17.8778 16.0716 23.7432
3796 1 17.6684 18.2974 22.0894
1231 1 17.8558 18.2104 25.7927
3791 1 19.6443 16.6803 22.1273
2030 1 16.0872 19.9345 21.9296
3953 1 16.224 20.0272 26.1747
2187 1 17.7625 20.0142 24.0862
4594 1 19.6126 18.3279 23.7614
910 1 19.7786 16.9374 25.7003
3478 1 21.3998 16.5388 24.0618
4506 1 23.3745 16.2804 22.5396
2273 1 21.5367 18.4251 22.596
4593 1 23.3304 16.0888 25.8535
7637 1 22.0192 18.4581 25.751
5398 1 23.6998 18.6263 23.8237
6209 1 23.1822 20.3414 22.302
4512 1 25.7038 18.1764 22.8065
3709 1 25.296 16.1625 24.076
3627 1 26.8225 16.1536 22.3763
2375 1 27.8057 18.1022 24.6041
6193 1 27.3297 15.8533 26.0202
7485 1 25.6143 17.6809 25.5385
5306 1 26.9974 19.9764 22.6942
5719 1 28.7756 15.9342 24.3277
5322 1 28.4635 18.0056 22.3989
6109 1 30.5053 16.1956 22.6432
6278 1 30.2578 18.3939 24.2059
7071 1 30.9557 15.591 26.984
5869 1 29.4083 17.2236 26.0199
5391 1 28.8155 20.2924 24.1506
5388 1 30.734 19.887 22.2873
6112 1 32.4143 16.1062 24.7446
6913 1 32.5298 17.7759 22.8577
5399 1 34.2729 16.2039 22.6202
6910 1 34.4539 18.8103 24.3246
5076 1 31.9525 18.3473 25.873
521 1 34.2167 16.987 26.0637
7707 1 1.42949 19.4186 22.149
5469 1 1.45972 21.7209 23.8311
6906 1 0.100749 19.8673 23.938
755 1 3.42278 21.7894 25.3525
590 1 2.87587 21.6502 21.9227
5558 1 3.01107 23.6867 23.8409
5311 1 -0.262842 21.3422 25.908
7787 1 -0.129842 21.648 22.4347
3790 1 -0.369072 23.576 23.7049
7709 1 1.10211 23.0569 26.0579
674 1 5.03396 19.8088 21.6791
7790 1 6.7773 20.0041 23.8892
832 1 4.89502 21.8702 23.3562
2044 1 4.96644 23.67 26.1563
7871 1 4.88636 24.0322 22.1253
7792 1 6.58571 21.6495 25.4637
592 1 6.89307 21.5956 21.8957
7884 1 6.61411 23.6011 23.653
2915 1 8.43714 20.2732 25.4298
520 1 8.57879 19.777 22.1516
3477 1 10.7284 20.2522 24.4683
7800 1 8.70243 21.8399 23.8226
600 1 10.4786 21.5322 22.4086
5717 1 10.6023 22.5182 25.6614
670 1 8.30286 23.7365 22.2574
1721 1 8.53974 23.2658 25.9184
2752 1 10.5117 23.5155 23.6902
1397 1 12.3474 20.1654 22.1963
1883 1 12.6228 20.2199 25.5952
1392 1 12.7041 22.0049 23.7402
1390 1 14.4421 21.932 22.0602
2453 1 14.2882 22.0785 25.5498
1391 1 14.268 23.7869 23.7193
7796 1 12.4294 23.9546 22.0427
6511 1 12.7124 23.9395 25.6655
3152 1 16.0288 21.8877 24.128
3786 1 17.924 21.7906 22.6052
2677 1 17.822 21.9604 25.8376
4561 1 16.0238 23.5948 22.1504
2986 1 19.6735 23.4725 22.4386
3071 1 19.6544 21.8139 24.596
4756 1 16.0286 24.0588 25.5823
1480 1 17.8298 23.6109 24.0046
6355 1 19.965 23.4993 25.9261
3959 1 19.6009 19.8746 25.8078
5473 1 21.6773 20.1568 24.3589
5152 1 23.7353 20.0956 26.3898
2908 1 19.8279 20.2595 22.8177
2992 1 21.5095 22.1315 22.4297
5233 1 23.4916 21.5746 24.2758
6190 1 21.7184 21.7658 25.8475
3792 1 23.6461 23.663 22.3366
7003 1 21.5157 23.5536 24.191
4861 1 23.2238 23.3718 25.9146
4609 1 25.39 19.9733 24.4194
3241 1 26.8629 19.9291 26.1502
5472 1 25.0498 21.6753 22.4753
4597 1 26.7943 21.9309 24.1396
4845 1 25.3621 21.9121 26.0086
5555 1 26.9196 23.6325 22.0848
2835 1 26.9745 24.0376 26.1983
4671 1 25.2065 24.0243 23.9672
4592 1 28.4862 22.1224 22.3818
5506 1 30.5143 22.0621 23.2384
6996 1 28.534 23.6854 24.1369
1040 1 28.3866 22.0609 25.8561
2290 1 30.6423 20.9529 25.5462
6269 1 30.9235 23.9538 22.3619
6113 1 32.5212 20.171 24.143
6106 1 34.3347 20.0795 22.4437
2598 1 33.5776 20.7081 26.3499
5416 1 34.6704 21.6263 24.2323
6192 1 32.43 22.1461 21.9987
1337 1 32.8407 22.7886 24.2173
6992 1 34.3083 23.6599 22.1203
1730 1 34.7195 23.2741 26.386
7794 1 1.47356 23.7346 21.9284
6990 1 1.20333 25.3143 24.2804
6353 1 1.2804 26.951 22.4581
6517 1 35.8063 26.6209 24.4266
1389 1 0.951418 27.1011 26.0284
7070 1 -0.514916 25.3157 22.1816
749 1 3.05271 25.5469 22.2483
6433 1 3.13692 25.2416 25.6679
7951 1 3.21776 26.9489 24.2263
677 1 5.22765 25.2989 24.2829
672 1 6.59949 25.7447 22.0041
2190 1 6.48525 27.4628 23.741
673 1 4.68213 27.3639 22.4269
1414 1 6.82133 25.141 26.0445
7874 1 5.41858 27.1196 25.9265
756 1 10.1204 25.4996 21.9927
1547 1 8.50773 27.3927 22.364
3575 1 8.63032 25.1388 24.1478
2298 1 8.62131 27.1867 25.5352
1716 1 10.1598 27.3009 23.6541
2760 1 10.5031 24.9207 25.7468
2192 1 11.9461 27.2314 22.2937
1471 1 11.9572 25.5281 23.7558
2349 1 14.2033 25.4462 21.9579
2218 1 14.1012 26.9689 23.6945
5904 1 12.1385 27.0499 25.7081
669 1 14.4971 25.5566 25.5411
203 1 16.454 26.9279 25.5246
1559 1 16.2171 25.5518 23.6198
5477 1 17.8873 25.2507 21.6999
1639 1 18.2838 27.0593 23.6843
285 1 18.3257 25.2184 25.6945
3067 1 16.129 27.2314 21.9494
3812 1 20.225 27.2388 25.3404
4910 1 19.6346 25.4654 23.5634
3146 1 20.5803 27.3625 22.2914
4590 1 21.7263 25.3512 22.0797
4749 1 23.8235 27.8243 21.9203
3072 1 22.4668 27.2988 23.5323
3876 1 23.2839 25.153 24.0804
3235 1 22.9613 27.3099 25.7803
2432 1 21.7277 25.3478 25.715
5551 1 26.8818 27.6928 22.2402
4669 1 25.105 25.5003 22.3385
4666 1 27.165 25.7141 23.8332
4040 1 25.1977 27.4295 24.1093
5478 1 25.136 25.6775 25.7451
5790 1 26.8922 27.3349 26.2116
6273 1 28.8663 25.487 22.5216
6430 1 30.6986 25.7179 23.9783
7082 1 28.6058 27.6409 24.1492
5389 1 30.4413 27.3689 22.3576
1084 1 29.1151 25.0134 25.9525
6272 1 32.5936 25.3626 22.2823
7073 1 34.1832 24.8107 24.4266
7342 1 32.1225 25.3114 25.6368
7149 1 34.5766 27.0226 22.2849
6349 1 32.7221 27.0176 24.3234
7162 1 -0.418244 24.9029 25.9417
114 1 0.961803 29.4271 24.7054
753 1 1.02356 30.822 22.0064
7950 1 2.7567 28.7046 22.707
7236 1 -0.374018 28.7008 22.3796
2848 1 2.66139 31.6746 24.8932
1901 1 35.6198 30.4733 23.4807
5313 1 3.24716 29.0796 25.6056
4481 1 0.217635 31.4625 25.9869
1001 1 4.90046 29.2775 23.8207
3892 1 6.87946 31.1213 23.7966
29 1 4.93722 30.9875 22.1844
830 1 6.73564 29.0797 22.0574
751 1 4.89099 30.9686 25.5946
2029 1 7.05227 29.1608 25.3883
1553 1 8.44575 29.4806 23.7258
3160 1 10.4083 29.1736 22.1049
2276 1 8.59498 31.3302 22.2936
915 1 10.1086 31.5945 24.2855
5960 1 8.29559 31.2178 25.8074
3080 1 10.336 29.1279 25.1693
2430 1 12.2423 29.1596 23.7896
1627 1 13.9152 28.9868 22.2339
2196 1 12.2627 31.0824 21.8296
6404 1 14.2185 30.8107 23.7689
764 1 12.9493 30.0322 25.9527
452 1 14.8451 28.5966 25.4712
1318 1 14.1221 32.3818 25.896
1710 1 16.0421 30.7443 21.8655
2702 1 16.0043 30.5872 25.6474
1554 1 16.5903 29.2748 23.4526
3153 1 18.5264 29.1814 22.3189
1711 1 18.0012 31.4865 23.757
1551 1 18.3516 29.1176 25.2973
2513 1 20.1338 31.169 22.6644
5318 1 19.713 31.0348 25.3199
4031 1 20.8288 29.1942 24.2291
3159 1 22.078 29.4997 22.084
3239 1 22.365 31.2745 24.3746
3869 1 23.7587 29.3159 23.9185
4106 1 23.53 31.603 21.9545
4750 1 22.117 30.388 26.6656
5556 1 27.1995 31.0441 22.1193
3949 1 25.2416 29.4458 21.9743
3233 1 26.6659 29.6939 23.883
4601 1 25.0361 31.4318 23.7855
4911 1 24.7344 29.2949 25.8995
3873 1 26.5074 31.1546 25.6446
5631 1 30.856 30.5721 22.112
5629 1 28.828 29.2709 22.0235
5393 1 30.7571 28.9292 24.1078
6125 1 29.2808 30.9064 23.9742
5638 1 30.8605 30.7432 26.3208
7387 1 35.7416 28.7893 26.1207
6351 1 32.5203 28.7562 22.4559
6429 1 33.8223 30.7073 22.1624
6352 1 34.266 28.7761 24.1681
6711 1 34.5593 30.8677 26.1423
6434 1 32.6258 30.4022 24.3887
7744 1 32.6314 29.572 26.5108
7309 1 1.20641 34.4074 22.306
113 1 0.745063 32.3768 23.7727
7232 1 2.60257 34.4304 24.0332
7722 1 0.446135 33.9424 25.7376
6432 1 36.1827 32.8528 21.9111
7176 1 -0.267547 -0.149824 25.7131
7311 1 2.74373 32.6923 22.4012
1306 1 4.59834 32.9517 23.7894
7308 1 4.3058 34.7715 22.2308
36 1 6.5839 32.7782 22.1547
3476 1 6.53827 32.939 25.9257
6840 1 4.56416 34.587 26.0222
7872 1 6.63894 34.4105 24.0534
7390 1 10.7118 34.4553 24.322
7396 1 8.1987 34.9043 21.9995
1557 1 10.5167 32.9206 22.2941
2359 1 8.44238 33.1665 23.8564
5108 1 8.45618 34.4684 26.2303
5730 1 10.4863 33.2083 26.4815
1558 1 15.8984 36.0605 23.9856
1714 1 14.2869 32.5467 22.0505
1715 1 12.3621 34.4264 22.315
4771 1 12.1726 32.1777 24.1893
993 1 13.9228 34.1663 23.9121
4299 1 12.6591 34.1228 25.6726
1709 1 15.938 34.4089 21.9652
7234 1 16.0012 32.7238 23.7991
2431 1 17.7346 32.8741 21.9259
4835 1 17.7699 34.2545 24.0508
44 1 15.8764 33.9969 25.707
4830 1 17.7767 32.5819 25.9295
3232 1 19.4654 34.9443 21.9237
210 1 19.5699 34.861 25.9309
2433 1 19.9732 32.8815 24.5197
3952 1 21.4588 35.1165 24.5702
3955 1 21.8901 33.3165 22.7991
4032 1 23.4163 34.6136 21.8811
3069 1 23.5461 33.2786 24.0076
5252 1 21.7234 32.6898 25.9982
5816 1 23.3976 35.0831 26.0562
3307 1 27.4081 34.5176 22.5163
5330 1 25.3481 34.5021 23.3071
5713 1 25.792 32.7764 21.67
2590 1 27.2492 32.6015 23.9132
5789 1 27.3098 34.7191 25.791
3231 1 25.4637 33.4402 25.5026
4832 1 29.3445 32.4407 22.2834
5630 1 30.9991 34.4214 22.395
6861 1 29.0229 34.1812 24.3044
6512 1 31.3365 32.5381 24.3785
847 1 30.6221 34.7371 26.1331
4191 1 34.1603 -0.38105 24.0954
7557 1 36.2241 34.7538 23.8257
5626 1 32.7881 32.7302 22.1778
7469 1 32.4704 34.5984 24.0616
6509 1 34.3155 34.3779 22.5062
7168 1 34.9519 32.5964 24.1122
5497 1 33.1704 32.3272 25.8349
6516 1 34.534 -0.528067 27.2
275 1 -0.271366 3.53413 29.5559
115 1 1.41761 1.58282 25.8452
3712 1 1.66624 3.73402 28.6306
1635 1 35.9345 1.59908 28.0445
2364 1 3.07851 1.59496 27.3984
5798 1 3.04721 0.0545387 29.3992
1081 1 1.33486 1.84114 29.6404
1793 1 5.22812 0.899531 30.8102
4680 1 5.0229 -0.341699 27.5348
1479 1 6.07039 1.64645 27.9189
6046 1 3.89657 2.48163 29.3918
6595 1 4.71991 3.55917 27.4805
6938 1 6.83407 2.97195 29.7999
2696 1 10.5207 35.9567 26.1195
4378 1 10.7477 1.17185 27.5321
4846 1 7.24788 0.567436 29.6959
3154 1 10.3765 2.35716 29.3867
5155 1 9.61139 0.217026 29.2626
7271 1 8.17826 -0.311689 27.5554
358 1 8.59757 2.29052 28.1339
2132 1 12.5529 1.25611 29.8834
7480 1 14.6066 1.51636 27.9875
6214 1 12.4665 36.1643 27.714
2363 1 14.5186 3.32812 29.5359
3150 1 19.5487 1.27994 26.0367
6451 1 17.2336 -0.00906234 29.3118
763 1 15.7925 -0.535349 27.3772
4219 1 17.66 1.57771 27.5991
1157 1 19.1663 1.72968 29.5078
7239 1 19.7689 -0.401873 27.8664
454 1 21.8613 0.0121433 26.4954
5657 1 21.1438 1.58498 27.9878
3879 1 24.5616 -0.0441536 28.0809
5554 1 20.1898 -0.479578 30.2007
3716 1 22.9737 1.48239 29.3646
5480 1 21.3362 3.11162 30.2191
6121 1 24.8419 1.37497 30.6805
7896 1 25.2838 2.71308 28.3568
7009 1 27.5147 2.19532 28.7709
4529 1 28.7152 3.35973 31.5675
5174 1 27.3848 0.279176 27.3461
2195 1 29.0787 1.9968 26.8046
4034 1 31.8164 2.77878 31.885
2852 1 30.5088 0.392236 27.5151
1402 1 30.0434 2.44762 29.3631
7985 1 29.7979 1.09171 31.3032
5571 1 35.546 1.4712 30.7877
2388 1 34.029 0.758701 29.3417
208 1 32.8371 1.52706 27.5781
6669 1 32.6723 2.75545 29.7589
5104 1 31.7406 0.55304 29.4359
5023 1 35.9353 5.55233 27.3687
5079 1 0.691206 5.84254 29.3462
4618 1 2.94827 5.45525 27.8459
1156 1 1.1948 7.36832 27.1505
1143 1 3.45482 7.24374 29.5379
1340 1 2.46985 4.60953 30.4501
35 1 7.432 6.96537 26.0905
216 1 5.00582 5.26435 29.3822
994 1 6.59471 4.37145 27.9281
7969 1 5.41788 7.13506 27.2706
1177 1 7.00299 6.36144 28.8669
3718 1 5.26712 9.2325 29.6019
7567 1 7.35368 4.8844 31.0595
1097 1 10.7914 4.55995 27.9454
1166 1 8.83567 4.31391 28.9435
1871 1 9.55158 6.83981 28.2397
4452 1 11.1861 6.4165 29.8317
7680 1 13.8799 3.36169 25.5935
2851 1 12.6792 2.64375 28.0429
4205 1 13.7785 4.65396 27.8589
3078 1 12.116 7.07398 27.365
1713 1 12.2392 4.15181 30.1032
7417 1 16.2046 7.5801 27.9178
7444 1 15.7687 3.54561 27.3081
996 1 15.6283 5.48395 28.9996
7335 1 19.3405 3.22838 27.7894
6778 1 18.1465 7.48352 29.4053
7337 1 17.7366 5.54278 27.6747
197 1 17.6164 5.40833 30.5269
4284 1 17.072 3.07056 29.3413
7499 1 19.7161 7.00619 27.7309
4271 1 22.879 3.22052 27.5243
3390 1 21.0291 4.93596 27.575
1636 1 24.1884 3.9063 30.2787
120 1 22.5792 5.43926 28.9221
6194 1 21.3168 7.60364 29.2995
610 1 27.3784 3.87437 27.2404
6555 1 26.3047 3.04943 30.8294
1022 1 25.8644 6.21312 30.0885
3960 1 25.175 5.12795 27.9551
1810 1 23.743 7.06174 30.3495
5010 1 26.9267 6.85389 28.0735
7660 1 31.3676 4.13884 28.4849
1423 1 28.222 4.48875 29.3025
2350 1 29.0483 5.84233 27.4145
2919 1 30.4515 6.36312 29.078
5280 1 31.2761 7.28714 31.4776
1162 1 30.5208 4.45296 30.7447
6599 1 32.8246 5.25473 30.1294
142 1 34.8746 5.59157 29.392
4524 1 35.7701 7.47376 30.611
4991 1 32.9894 5.43358 27.2727
5949 1 34.9599 7.76153 27.8096
4123 1 33.2586 7.59269 29.3186
7316 1 1.32943 8.86753 25.4907
6834 1 1.64145 9.01644 29.3763
4132 1 0.880697 10.4798 27.668
1146 1 3.72464 8.91052 27.6391
6275 1 1.09574 12.2678 31.8797
2204 1 2.64587 10.6659 25.8951
2758 1 7.60588 11.6698 25.8188
4514 1 3.41898 10.5754 29.8148
6633 1 6.93949 11.2672 28.9666
1489 1 4.87302 11.1537 27.1562
7715 1 7.52159 8.51286 28.2317
2306 1 3.60852 13.2058 30.0902
6208 1 8.66801 9.20248 25.9178
5557 1 7.72008 9.77821 30.3071
5401 1 10.5729 8.99697 27.4905
7317 1 8.84428 10.8162 28.1045
220 1 10.1379 10.9423 29.9278
4435 1 13.8109 7.323 29.4429
5803 1 11.8961 11.2674 27.9804
3633 1 12.1597 9.32172 29.2694
4790 1 14.0022 9.27994 27.7947
1099 1 14.1113 11.3573 29.3136
4353 1 17.5968 10.9288 25.8128
435 1 16.0061 10.7905 27.7922
5235 1 16.1274 9.11053 29.5048
6695 1 17.8561 9.29036 27.5555
4429 1 17.7349 10.8769 29.3591
3178 1 19.7566 9.1989 29.2739
2538 1 19.5677 10.9314 27.3892
5240 1 23.9169 7.12642 27.89
850 1 21.5447 9.29903 27.4647
3795 1 23.2053 11.1311 27.7427
4610 1 23.259 9.29775 29.5067
7673 1 21.6973 11.1508 29.2834
7964 1 25.8882 9.01564 27.8811
6037 1 27.4656 11.0535 28.2761
4441 1 26.8594 8.38229 29.9085
2369 1 24.8587 11.1164 29.5683
940 1 24.8182 8.8133 31.2016
1643 1 30.8312 9.2723 26.195
7241 1 29.5387 10.7982 29.1214
5151 1 28.576 8.60515 28.0732
7656 1 30.948 11.1791 27.3933
3312 1 31.1218 8.73582 28.8188
7973 1 29.1762 8.74343 30.8976
3240 1 31.3935 9.79149 31.0956
7724 1 0.189811 11.1408 29.8264
4682 1 35.3677 9.36363 29.431
4269 1 33.1492 10.2377 30.0397
2940 1 33.2413 9.59468 27.8708
5157 1 34.1973 8.88799 31.5477
4762 1 35.2253 10.945 27.7482
4436 1 35.3328 11.1343 31.4124
6762 1 0.436432 12.9851 27.6147
5910 1 1.97352 14.5412 27.8824
6276 1 0.743111 13.7435 29.9699
6911 1 2.54839 12.0939 28.2698
4521 1 -0.293716 15.8525 29.897
3169 1 35.4787 13.5527 31.568
3568 1 4.43895 14.016 32.1727
757 1 5.33372 13.4275 28.1899
2593 1 7.90293 13.1677 27.8492
6776 1 6.81418 13.3362 30.427
1151 1 6.66666 15.2927 29.0317
3720 1 9.17484 13.664 26.0162
5080 1 10.7656 14.934 29.7037
1314 1 8.79566 15.0805 28.2548
7393 1 10.1664 12.8741 27.8576
5483 1 9.0177 13.0957 29.8641
1155 1 12.3404 13.1578 29.8703
4519 1 13.8798 13.1348 27.8139
2270 1 12.6512 14.926 28.0902
2833 1 14.2895 14.6418 29.6677
2026 1 17.6166 14.7818 25.7564
4126 1 15.9679 13.1396 29.2917
2827 1 15.8859 14.8775 27.6029
2401 1 17.6074 12.7967 27.7409
2517 1 17.7548 14.5254 29.4329
4518 1 19.4735 12.7145 29.2977
1509 1 19.5058 14.7867 27.5863
6914 1 21.5746 14.9453 29.5115
7903 1 21.3462 13.0049 27.5485
1876 1 23.0593 13.0188 29.4496
5164 1 23.1733 14.3853 27.5155
995 1 25.1734 12.9631 27.7608
7638 1 26.352 13.2867 29.9595
2608 1 24.7236 14.8527 29.4078
4426 1 27.2765 14.2522 28.1964
6047 1 28.7384 12.7778 30.2322
6290 1 24.524 12.8065 31.261
5870 1 31.2276 11.9584 30.3185
2522 1 29.4759 12.7653 27.8682
2612 1 30.5558 13.9285 29.3568
3989 1 31.0842 16.1745 29.6295
5175 1 35.3754 14.47 28.2754
6114 1 32.9115 12.102 28.3911
4694 1 34.77 12.5171 29.4721
836 1 33.0451 14.635 29.4378
6126 1 34.3875 15.7728 30.9262
6715 1 4.068 15.7202 28.1449
2856 1 0.48161 19.5118 27.8201
2456 1 0.109289 17.0073 27.4524
6129 1 1.05349 17.8882 29.8889
786 1 2.66442 18.3719 27.6729
537 1 35.9503 19.4 30.0453
2750 1 3.01075 20.6459 27.6871
6594 1 4.96514 16.202 30.3923
2454 1 7.00788 16.752 27.3776
1160 1 5.09842 17.884 27.5028
3572 1 6.57723 18.2708 29.4397
427 1 6.81125 19.5179 27.4399
7323 1 4.91355 18.2779 31.4121
4924 1 8.58533 17.329 29.1481
7713 1 9.19033 18.6046 27.1531
3158 1 10.8029 18.9079 29.3345
2926 1 10.7262 16.8255 28.0407
1236 1 12.8314 16.9018 29.2024
917 1 12.7409 18.7298 27.7689
911 1 14.2627 16.4344 27.4888
3314 1 14.3939 18.7718 29.5915
7089 1 16.5228 20.4124 29.3994
2865 1 16.1325 18.3714 27.6978
4677 1 16.247 16.2374 29.2876
3800 1 17.8284 16.7698 27.706
1235 1 17.8481 18.38 29.3306
2839 1 19.5875 16.2609 29.2437
2185 1 18.0367 20.2006 27.7335
2628 1 19.3741 18.4419 31.3006
6189 1 19.7184 18.4515 27.6668
1399 1 21.1535 16.684 27.5398
287 1 21.3525 18.4146 29.5861
594 1 23.1164 17.9146 27.6508
7725 1 23.4902 19.5083 29.1613
5484 1 23.0484 16.8486 29.7738
4029 1 25.2971 16.4106 27.3467
3329 1 27.0432 15.7992 30.0642
4515 1 27.4464 17.9455 27.8808
4591 1 25.4529 17.5969 29.4964
7898 1 29.3537 19.5015 26.5268
5799 1 28.7959 15.9028 28.156
3630 1 30.2292 18.028 28.1083
1718 1 29.2792 17.8586 30.2081
3149 1 31.3721 19.1892 30.0713
1419 1 28.1936 20.2482 28.4748
5958 1 32.4861 17.3227 27.7878
7328 1 34.5841 16.7297 28.3344
6040 1 33.0827 17.8176 29.9773
6993 1 34.2599 19.0253 27.7468
7154 1 33.79 20.4576 29.9454
7806 1 31.9791 20.163 27.8683
7560 1 2.19053 20.1016 29.9545
1441 1 1.65606 23.8296 29.7966
698 1 1.47265 21.9026 28.4647
5262 1 -0.108866 21.8939 30.5195
6032 1 3.6534 21.7786 29.8457
5072 1 3.11999 23.6407 27.7692
682 1 -0.451717 23.7587 28.1653
3089 1 5.01387 20.2014 29.6134
3823 1 5.27341 21.6594 27.6003
7672 1 6.54673 22.0505 30.1956
4203 1 7.17398 23.4372 28.0284
1961 1 4.91644 23.6318 29.1995
3560 1 10.5777 20.4527 27.4438
3504 1 8.57174 21.1864 27.647
6150 1 9.7175 21.3144 30.0907
1309 1 8.11163 19.8684 29.4354
6998 1 10.1431 23.3523 27.7787
7736 1 8.55131 23.9361 30.147
4117 1 12.8662 20.4822 29.3727
3794 1 14.3363 20.5372 27.676
5579 1 12.2078 21.9848 27.2902
2126 1 14.7727 22.3797 29.8596
6299 1 14.6046 24.0065 27.5226
5237 1 16.183 22.2418 27.7153
1488 1 17.8456 22.3728 29.6633
7751 1 17.7644 23.9838 27.6924
5491 1 20.009 21.7202 27.4835
3871 1 16.3782 24.1501 29.4833
279 1 18.0348 20.5454 31.5402
1495 1 19.6872 23.6013 28.9819
6670 1 15.8279 21.1719 31.7824
3969 1 19.5026 20.1068 29.5109
2830 1 21.778 19.9622 27.6152
7078 1 21.4717 21.8776 29.3194
3167 1 21.8978 24.0244 27.6702
5386 1 23.3223 21.8952 27.7362
3729 1 20.6277 21.1576 31.5002
6435 1 25.5704 19.4191 28.0677
4761 1 26.7708 22.0016 27.8469
4039 1 26.148 23.7811 29.8241
4475 1 25.1904 21.7243 29.8371
5489 1 26.7501 19.4241 30.3746
919 1 24.6715 23.9345 27.9417
7092 1 23.521 23.8016 29.899
5395 1 30.7237 23.5115 25.2348
7955 1 30.0379 21.865 27.6656
2874 1 27.7951 21.8154 30.3616
1550 1 28.4145 23.1788 28.6203
3825 1 31.9508 21.883 29.4513
3157 1 29.7898 24.3226 30.7436
771 1 35.3666 21.2772 28.0108
4755 1 32.32 22.561 26.8004
3634 1 34.3781 22.5309 31.2276
4216 1 34.0973 22.7946 29.1078
7408 1 1.33616 25.1285 27.3118
4995 1 0.0362614 26.2845 30.6828
135 1 35.3156 26.0082 28.5629
447 1 3.09315 27.5422 27.1153
2627 1 1.35964 27.0828 28.9262
1549 1 3.26025 25.9858 29.8208
678 1 5.00852 27.5705 29.3741
6524 1 4.56489 25.5827 27.8603
7319 1 6.32268 25.5988 29.5125
2106 1 7.1051 27.0599 27.5619
200 1 8.719 26.9034 29.2213
7949 1 8.7381 25.2109 27.3728
842 1 10.1081 27.2697 27.3782
750 1 10.6216 24.9603 29.5546
7730 1 10.1678 26.7224 31.2825
846 1 12.8647 23.3026 29.1061
7164 1 12.2249 25.3369 27.5633
6782 1 14.0096 27.1888 27.2821
4292 1 13.8071 25.6978 29.6424
3074 1 11.9256 27.056 29.0842
2601 1 16.0617 26.2182 27.5849
1794 1 18.5998 26.2436 29.2401
4632 1 20.1398 25.8644 27.3957
928 1 18.2905 27.4649 27.0129
1918 1 20.2308 27.7006 29.465
3561 1 22.02 27.6773 27.7649
6916 1 21.7669 25.7844 29.3158
6991 1 23.4157 25.8756 27.4715
3883 1 23.0059 27.8567 30.1353
3975 1 25.8892 25.9512 28.0638
6134 1 24.3187 26.3088 29.9432
2520 1 24.6943 28.0023 28.01
754 1 26.4508 27.6677 29.5019
7231 1 28.6714 28.0152 28.288
3349 1 28.497 25.3917 28.1289
1485 1 30.7995 24.4797 27.5812
5173 1 30.8276 26.4883 28.8835
3395 1 32.0192 24.4098 30.2255
4369 1 34.2617 26.4377 26.1085
5471 1 32.2163 26.9476 26.9025
5641 1 33.1981 24.8977 28.1868
7900 1 33.046 27.4239 29.0201
3986 1 32.9964 26.1751 31.357
1811 1 -0.494492 28.0172 28.4654
4919 1 0.943303 29.3657 27.1254
4997 1 1.20465 30.274 29.4434
310 1 3.17167 28.9426 28.8582
604 1 0.975539 32.7794 28.4919
7163 1 2.86367 30.7245 27.2356
7004 1 7.13254 28.7635 29.6087
7072 1 5.33139 29.1241 27.4386
1239 1 5.03725 30.4347 29.5002
1719 1 6.98112 31.0199 28.033
7919 1 8.65526 29.1583 27.5889
5986 1 10.2669 28.9045 29.8791
5596 1 7.87125 30.9551 30.1696
38 1 10.4035 30.902 26.8664
999 1 12.2922 30.5429 29.2211
361 1 14.2208 28.1204 29.4433
6836 1 11.2165 29.0572 27.7865
7975 1 14.3127 29.9859 28.1088
1085 1 16.1315 26.8167 29.9414
4221 1 16.1786 28.8541 27.6339
7498 1 16.4053 30.5338 29.58
6945 1 17.9996 28.6648 29.4587
1474 1 18.0738 30.6934 27.3421
6455 1 20.2148 29.2856 26.983
1792 1 20.0216 30.6498 28.8523
852 1 24.7688 30.251 28.5072
1631 1 22.3196 32.1998 28.3116
2115 1 22.3535 29.8706 28.7228
7094 1 23.8926 31.9854 26.2609
5090 1 24.6739 32.0252 29.9361
2286 1 26.7795 29.1506 27.5859
5639 1 24.7215 29.1007 30.6739
4528 1 26.9203 30.4255 29.419
4559 1 26.3803 32.1326 27.6237
6774 1 30.0783 27.2108 26.1076
4918 1 28.7026 32.4431 26.1496
4204 1 28.4472 29.5139 26.032
7273 1 29.313 30.3968 28.002
4844 1 31.624 29.2573 28.8177
30 1 29.428 29.5113 30.1907
5711 1 28.6492 32.4727 28.7786
1648 1 28.577 31.6246 31.0945
7989 1 35.9677 30.4613 28.3059
5242 1 34.079 29.0295 28.0686
3185 1 32.8694 29.1161 30.956
684 1 30.776 31.7586 29.9784
4836 1 32.4946 31.4469 27.9924
4768 1 34.5096 30.7959 30.0483
4912 1 2.40215 33.4759 26.9525
4035 1 36.0591 -0.320534 29.4029
6546 1 -0.218742 31.6373 30.5126
7074 1 -0.291104 34.9136 27.6277
6699 1 1.20044 -0.0672243 27.7705
5804 1 1.07076 34.6847 29.5552
4792 1 3.09025 32.029 29.3099
7952 1 3.78049 34.4501 28.7697
6436 1 4.7109 32.2511 27.6713
3161 1 6.27304 32.8754 29.6706
3554 1 6.09806 34.4024 27.7634
5087 1 10.4566 32.1547 29.5143
833 1 7.72503 35.0192 29.2474
3335 1 8.38567 33.2527 30.6333
5501 1 8.2509 32.8614 27.847
5093 1 9.83403 34.6291 28.7075
515 1 14.4813 35.8305 28.9586
1398 1 12.2729 32.0912 27.2422
3815 1 12.0108 33.6807 29.0325
294 1 14.4503 33.9369 27.7031
39 1 13.9653 32.3377 29.1084
2139 1 11.7254 35.5996 30.1406
5714 1 12.1987 31.8809 31.1403
6374 1 18.3124 34.6852 30.1191
1886 1 16.026 34.2167 29.3917
4281 1 16.0479 32.1394 27.8182
3248 1 17.7249 32.4601 29.3166
3956 1 17.7208 34.5047 27.6577
1878 1 16.0978 35.5234 31.3001
4135 1 22.3596 35.8331 28.7469
2444 1 21.4435 34.4836 27.2873
3816 1 19.7543 32.7269 27.5088
6510 1 22.9644 33.4364 30.4318
117 1 23.973 33.6722 28.2225
3389 1 20.9253 33.8336 29.4867
6442 1 24.6168 35.4227 30.2141
1955 1 27.0709 35.5919 30.952
4124 1 27.032 33.3766 30.2441
4675 1 26.4572 34.6119 28.2157
2949 1 26.2185 0.216234 29.4239
5001 1 28.8524 -0.318854 29.3453
2073 1 29.7346 34.2312 30.3035
5179 1 30.6875 33.0245 27.7605
2356 1 28.8978 34.7307 27.6961
1809 1 31.0496 35.1145 28.6208
7954 1 33.0638 34.1592 27.5509
5550 1 34.6655 34.334 25.8503
7411 1 33.1822 32.7802 29.796
1405 1 34.7322 32.3746 28.0324
6591 1 35.526 33.8728 29.4858
6758 1 0.536425 2.67854 31.731
2535 1 2.0402 35.9231 33.5868
5004 1 2.87704 1.94023 31.4888
2292 1 -0.185806 32.9193 35.1976
5485 1 28.9808 31.3115 34.1762
276 1 4.0294 -0.273828 32.4958
1323 1 6.65849 2.21278 32.1649
1158 1 6.38707 35.3613 34.4448
6515 1 4.37702 2.45232 33.1769
2837 1 5.72045 0.917994 34.0215
1891 1 4.58084 3.73299 31.1983
3191 1 7.56018 2.47792 35.3662
5635 1 8.90192 2.54824 31.1375
2391 1 7.63182 -0.198034 31.8215
5877 1 10.4807 0.759335 31.3237
6843 1 11.6008 2.5473 31.8648
3020 1 9.16333 1.03877 33.3887
4780 1 11.7799 0.593965 33.7066
1601 1 13.3422 2.35063 34.7847
4538 1 15.3136 1.07794 30.0998
5074 1 13.5797 35.8303 33.7201
5332 1 13.7285 2.37812 32.1507
7810 1 15.8995 3.6184 31.3876
3475 1 31.6327 33.3007 31.6556
4138 1 15.1506 0.924023 33.2509
7721 1 17.3234 1.51025 31.8378
6521 1 19.5429 1.56891 33.7073
1555 1 19.2662 3.28943 31.4868
7805 1 18.8682 3.7563 33.999
2706 1 27.6513 27.4913 34.7921
7160 1 17.5154 0.466107 33.6993
6216 1 20.913 1.46708 31.3804
2037 1 22.707 -0.264078 31.4728
2523 1 21.8303 1.10176 33.759
2198 1 18.9769 35.3646 34.3163
1946 1 23.3141 2.85373 32.017
6679 1 7.0038 26.3383 35.2739
6766 1 34.6012 14.4081 35.3148
861 1 24.1612 0.91762 33.8046
6218 1 23.1179 14.4174 35.3473
6382 1 23.0177 2.99491 34.25
2843 1 27.5109 1.08155 31.197
3413 1 25.7501 2.05785 32.8392
3313 1 25.4911 3.46864 34.658
766 1 12.6364 26.5611 35.3767
7556 1 31.3617 35.7875 30.8296
2305 1 28.3014 1.84661 33.3572
1870 1 31.1241 0.645919 33.4038
7318 1 30.0436 3.29856 33.5492
7735 1 12.7671 10.025 35.0405
6787 1 33.2645 0.830346 31.4187
5162 1 33.4854 -0.534102 33.8733
6370 1 34.6843 1.33209 33.0133
770 1 2.49879 4.08073 32.6179
5786 1 3.94339 5.07925 34.2429
5718 1 1.70794 5.96587 33.9563
4945 1 1.81409 3.79528 34.8085
607 1 1.51642 6.88567 31.2144
844 1 2.48151 8.07367 33.4144
6280 1 32.2487 23.8394 35.163
4055 1 5.84301 4.83749 32.9479
841 1 4.24165 6.17694 31.6293
2764 1 6.35812 7.46313 30.4553
1310 1 4.8571 7.38512 33.2871
7959 1 8.85171 6.7077 30.2972
2761 1 8.01344 3.83344 33.2802
3175 1 9.9851 4.61555 31.1352
2295 1 8.42572 6.07559 32.8239
1717 1 20.9994 29.8038 35.2575
7555 1 9.71023 7.79111 34.5456
1964 1 11.9794 4.86726 32.7736
356 1 14.1316 5.4117 31.0944
7247 1 14.6526 3.81586 33.6806
3728 1 14.9453 6.4169 33.6039
2380 1 10.3083 6.75041 32.1078
1003 1 11.8165 7.06655 34.3732
4854 1 16.7957 4.84839 34.7267
848 1 16.6333 5.34586 32.7823
5634 1 19.8947 5.51519 32.7744
6128 1 19.8322 7.4627 31.2266
6035 1 18.091 7.27341 33.3473
1253 1 10.8115 2.91746 34.0086
3735 1 25.2464 4.57301 32.559
3645 1 21.1083 3.53331 32.9081
4520 1 19.7195 5.80278 29.8883
6534 1 22.053 5.65958 31.434
2684 1 23.091 5.12594 33.6526
4793 1 20.7498 4.85499 35.1478
4059 1 27.4869 5.23088 31.5125
6473 1 25.0074 6.24254 35.3859
1563 1 24.9291 6.97825 32.6534
2287 1 14.7205 16.7183 35.1112
2434 1 27.1229 6.00615 33.7301
5071 1 10.1615 5.47633 34.24
4681 1 29.6639 5.48517 32.7705
1798 1 27.8522 3.84646 33.946
1801 1 28.8355 6.6521 30.5897
5171 1 32.0403 4.57884 33.3062
290 1 31.1327 6.74145 34.3796
4829 1 29.7691 4.96342 35.3413
5795 1 34.5006 3.94211 31.7411
671 1 35.7372 3.06386 33.7945
4752 1 34.1572 6.5134 32.0664
7549 1 32.4998 2.31036 34.289
7191 1 34.1051 4.83408 34.2321
6830 1 0.348048 4.94753 32.2902
2143 1 0.958685 9.33629 31.7336
7550 1 3.69667 11.4708 32.1415
6779 1 1.7503 11.1832 33.9414
354 1 -0.212202 11.8072 33.9899
7084 1 3.85646 9.94039 33.7282
131 1 6.07434 9.12281 32.026
2911 1 3.27685 8.87093 31.4573
4437 1 6.03762 9.79554 34.4377
6033 1 7.01465 7.70966 34.1594
3635 1 5.52551 11.5523 30.6356
2602 1 8.80364 11.2018 31.7456
33 1 8.28715 8.24236 31.8514
1875 1 8.30347 9.6181 33.9257
7487 1 10.3175 11.2411 33.5656
7182 1 9.77098 8.60919 29.8013
2537 1 10.7222 9.17791 32.3755
5808 1 19.0784 20.9402 35.079
2435 1 14.8153 10.4909 33.3045
1395 1 12.6085 7.41668 31.6009
6760 1 12.2453 10.5457 31.356
524 1 14.2672 9.21709 30.9234
602 1 12.8718 11.3482 33.224
70 1 13.2995 8.56733 33.2254
7647 1 16.5842 7.40897 31.4094
7633 1 15.8615 11.0838 31.2412
6281 1 16.358 9.18261 32.8637
7473 1 18.0479 9.08897 31.0823
2703 1 18.0625 11.0527 32.6968
2674 1 19.6046 9.13417 33.032
7007 1 29.746 15.4417 34.9851
3870 1 7.58863 5.39458 35.0951
4936 1 20.8602 7.44913 33.85
1241 1 19.5919 10.9081 30.7893
4113 1 21.4339 10.7694 33.0153
5967 1 21.2712 9.14817 30.9513
6698 1 23.1112 10.9906 31.4072
5964 1 22.7101 7.8078 32.2779
4237 1 21.3573 16.1556 34.2122
6207 1 19.9798 10.8316 35.2809
1799 1 26.9373 7.78061 32.0752
4057 1 26.1381 8.89234 34.0247
212 1 27.1108 10.8513 30.6841
437 1 27.6845 10.1252 32.6492
4834 1 23.128 10.0656 34.3925
1895 1 29.3267 1.25494 35.169
686 1 26.6693 0.0564371 34.0252
3680 1 25.3874 10.939 32.5125
6030 1 29.5226 11.2189 31.9135
513 1 32.6826 8.07175 33.0646
2070 1 29.2182 7.71289 32.9655
5188 1 28.9004 11.3873 34.1959
3108 1 30.7364 9.65786 33.5257
6604 1 -0.178491 7.45686 33.1637
2669 1 34.5919 7.28171 34.569
3897 1 35.6266 9.64092 33.6882
5404 1 14.1884 33.9981 35.2416
932 1 33.2169 10.6124 33.0214
1796 1 32.8051 9.82714 35.173
7098 1 1.79933 13.2998 35.0633
6751 1 1.95749 14.1616 32.197
5989 1 0.474637 16.1139 32.1773
5154 1 3.75032 12.9776 34.258
1350 1 1.81982 15.912 34.1082
7500 1 18.9255 6.23372 35.2363
7076 1 3.97779 15.1851 34.3533
3079 1 5.79069 12.0476 33.026
4375 1 24.2952 11.9614 35.2748
4037 1 6.41359 15.2269 32.0134
1956 1 7.94649 16.1684 33.7347
778 1 -0.33798 4.87993 34.7202
519 1 8.70574 21.9723 35.4173
5891 1 10.5531 12.7138 31.671
4036 1 8.60888 14.9579 30.9511
7315 1 9.97138 13.9602 34.643
5268 1 8.11726 13.1212 32.8126
6765 1 10.262 14.9184 32.5811
7584 1 14.4042 12.3899 34.664
3083 1 12.4978 15.0995 31.576
1159 1 13.8057 12.7553 31.4978
2110 1 12.2606 13.573 33.3029
937 1 14.4851 14.7203 33.0047
7793 1 15.964 13.1664 33.0768
2670 1 17.4674 12.6555 31.1588
2993 1 17.8709 14.5473 33.0056
7662 1 19.6575 12.3339 33.0138
5950 1 16.0986 14.6648 31.181
2923 1 16.0846 14.3756 35.0828
6196 1 19.5353 14.4217 31.0295
831 1 18.0515 12.7922 34.8097
6067 1 23.1176 14.7588 31.283
7233 1 21.235 12.8696 30.9858
2360 1 21.4485 13.9472 33.2372
4870 1 21.8968 12.5397 35.1303
1814 1 23.3344 12.2457 33.054
2475 1 23.4515 15.4342 33.4928
7629 1 19.5089 14.5789 34.4935
4715 1 21.0049 32.9639 33.7512
2686 1 18.3205 9.06849 34.767
2224 1 25.6963 13.5054 33.597
3244 1 25.3138 15.4526 31.6886
837 1 27.0359 12.8194 32.0941
3964 1 31.4716 12.0605 32.8575
6048 1 23.2902 34.438 32.6064
3899 1 29.2954 13.4107 33.0509
7714 1 27.9017 13.7376 35.4554
1317 1 28.7582 14.8615 31.1594
5732 1 29.7459 16.0936 32.6324
7710 1 31.3891 14.3898 31.6157
5811 1 34.0116 12.8876 33.3085
4438 1 31.5461 14.4309 33.7602
2272 1 33.1185 12.5916 30.8906
603 1 -0.178463 14.0866 33.5362
391 1 33.9628 15.239 33.317
6476 1 13.195 28.8538 35.0875
5805 1 2.14697 15.8318 29.9102
6301 1 25.0661 36.1481 32.3037
1072 1 1.93911 17.944 31.801
7314 1 20.1016 34.2852 31.806
5321 1 3.57826 17.8038 33.7801
457 1 -0.29217 18.7194 33.2653
4450 1 26.7766 11.7719 35.3683
4551 1 3.12781 16.1674 32.0813
5075 1 5.5598 16.8247 33.2975
5002 1 3.53494 17.773 29.7559
7268 1 30.1979 12.9755 35.2757
3661 1 7.95984 17.6411 31.6295
4925 1 6.46349 19.0011 33.6652
7151 1 10.3911 17.2181 32.8981
1556 1 9.45213 19.5976 31.6501
6439 1 10.5578 16.9887 30.6354
7554 1 11.2422 19.6016 33.2309
4672 1 12.177 18.4461 31.2765
368 1 9.1203 18.6921 34.64
5098 1 14.4363 16.7742 30.9018
5559 1 13.9227 20.1478 31.4247
3501 1 6.23289 14.1298 34.0918
2215 1 14.9398 18.9659 33.5003
3676 1 13.4061 17.0969 32.9233
1406 1 -0.532376 16.5717 34.8535
4713 1 16.2257 18.9717 31.2746
7875 1 17.5568 16.1133 34.8764
1145 1 17.8528 16.3305 31.2636
2038 1 16.183 16.4757 32.8347
3951 1 17.9128 18.3477 33.1391
7640 1 19.3574 16.6979 33.3421
1995 1 21.8869 18.9756 31.8218
3171 1 21.3188 16.3016 31.6551
5337 1 23.1512 17.7038 33.7377
2205 1 21.4006 18.2813 35.0698
3674 1 25.6096 16.9723 33.7692
3748 1 25.1492 20.4148 32.0776
2932 1 25.1774 19.4129 34.2784
5659 1 24.1809 17.9214 31.4374
2150 1 26.4574 17.5492 31.8175
6915 1 27.1799 19.961 33.2638
6431 1 27.126 15.3009 32.9975
4387 1 -0.0695529 19.925 35.2829
1396 1 30.7519 18.1958 32.0721
5238 1 29.3208 20.0106 31.1951
5316 1 30.4995 17.5394 34.6038
4596 1 28.4156 18.0358 32.6154
529 1 33.777 18.5552 32.3209
5758 1 32.6579 20.6624 31.9646
7006 1 27.5152 17.312 34.6019
5037 1 35.6859 17.5658 31.2906
5324 1 35.0347 1.02752 35.3009
3566 1 32.4381 16.5596 31.9081
7668 1 32.4037 16.5091 35.1111
4696 1 34.0962 18.1591 34.7838
4753 1 35.2255 20.6 32.2361
536 1 0.619417 23.5875 32.0647
3273 1 2.06297 20.077 33.8534
2754 1 3.00729 22.5645 33.6918
1966 1 2.13951 21.8348 31.6404
6609 1 3.37825 19.9209 31.9178
906 1 3.63019 23.8278 31.4449
6443 1 0.456578 21.6726 33.6277
5073 1 0.767365 9.21394 34.7609
3641 1 4.442 20.35 34.3211
3578 1 6.78377 21.354 33.6167
3875 1 5.15536 21.7401 32.0694
3713 1 7.4971 23.6349 34.0097
6298 1 5.3455 23.6514 33.8973
7658 1 8.94205 20.7452 33.6448
2994 1 6.74964 19.9559 31.3951
6920 1 11.0886 21.4165 34.8486
1756 1 11.5101 21.0681 31.4657
1411 1 8.31455 22.4529 31.9967
6829 1 28.1863 19.3009 35.3394
3789 1 12.3554 23.0859 33.4636
3814 1 13.4881 20.521 33.8885
7324 1 13.3693 22.8509 31.4502
6059 1 15.7422 20.8165 35.1837
442 1 14.9454 22.6543 33.5334
3487 1 16.8161 23.4289 32.0084
5791 1 25.3785 33.1206 32.1418
3480 1 25.6683 14.9721 35.3949
7397 1 26.9087 34.4128 33.1482
3164 1 17.3231 21.2576 33.5997
130 1 19.1574 22.9226 31.908
4222 1 19.9518 19.6917 33.2961
2829 1 23.0833 20.3653 33.7869
3906 1 20.8523 22.3352 33.506
6917 1 23.9637 22.5357 32.0676
777 1 21.468 23.2873 31.1842
37 1 22.8692 20.9255 31.2039
3810 1 26.712 22.5291 32.3526
121 1 25.039 21.9042 34.3004
4688 1 24.8967 33.9776 34.412
5918 1 27.6301 25.0915 31.2864
2223 1 28.93 21.6763 32.757
5746 1 30.1739 20.4468 34.1285
7471 1 30.9095 22.4747 31.4209
4357 1 32.5197 19.5402 34.0329
6204 1 27.3368 22.1052 34.7328
6191 1 30.732 22.9205 33.5867
2133 1 0.694869 19.9556 31.6853
6304 1 34.8256 20.666 34.4977
6948 1 32.8865 22.0303 33.831
4526 1 34.6676 24.2824 34.6562
6358 1 32.7784 23.9571 32.5143
7718 1 35.1443 22.9211 33.1717
7159 1 1.93494 25.3922 31.966
7732 1 22.9522 22.4255 35.4405
3898 1 3.02519 24.9029 33.607
4949 1 1.56015 28.0147 30.9529
5254 1 0.196872 24.8591 34.2476
3075 1 -0.0261644 27.5355 32.8449
52 1 4.8894 25.9809 31.476
2831 1 5.90691 24.0501 31.3716
761 1 6.29943 25.5522 33.3082
3896 1 4.40728 27.0325 33.8016
1094 1 7.31015 26.9723 31.413
4674 1 19.1756 18.5088 35.2666
5653 1 10.0703 23.1025 33.5844
3318 1 8.53789 25.2376 32.1026
2371 1 8.6054 27.2647 33.4203
2280 1 9.20234 25.3007 34.4912
7956 1 8.70753 29.0847 31.5929
118 1 15.0117 24.3921 31.1083
7812 1 28.2975 8.97639 34.9323
2525 1 11.4807 25.2871 33.6653
5241 1 12.1979 25.7491 31.3981
3180 1 10.8546 23.5983 31.3212
1070 1 14.2996 25.1884 33.4905
4763 1 14.2829 26.9196 31.7457
7576 1 17.5754 25.1006 30.9976
2135 1 18.2593 26.838 34.7833
5029 1 18.5386 23.2504 34.0095
2998 1 18.6187 27.5238 31.2509
3799 1 16.781 24.7536 34.2212
3181 1 18.8327 25.3397 32.7704
1735 1 16.5055 26.3874 32.6054
2938 1 11.9261 31.9656 35.08
7726 1 20.08 25.2816 30.9907
5668 1 21.1458 27.114 31.7953
2351 1 21.9511 27.9781 34.2045
5972 1 21.1329 24.8149 33.2688
6753 1 23.6169 24.5086 34.0645
5744 1 22.7764 25.0157 31.5333
193 1 23.8287 26.4598 35.2199
364 1 25.1563 24.6981 31.9318
4914 1 25.6492 27.1237 31.5175
6200 1 23.4232 26.8054 32.5474
4527 1 26.2648 26.1227 33.4507
5165 1 25.8141 24.0473 34.7167
5749 1 28.5941 26.8603 30.3614
5403 1 28.4589 26.8808 32.7911
5327 1 28.8383 23.9899 32.9141
7244 1 30.6574 25.5407 34.849
2207 1 30.7617 25.8176 32.2918
7590 1 31.5182 27.6097 33.7452
3251 1 35.2568 24.4892 30.5544
7256 1 33.0724 26.3116 34.1458
2288 1 35.2451 25.4327 32.5706
5734 1 34.7645 27.6795 30.5497
4278 1 35.2032 26.6268 34.9825
1000 1 0.349494 31.9125 32.8224
372 1 3.52735 27.9038 31.3943
1249 1 1.96054 31.5577 34.4956
2924 1 34.5669 11.4444 35.2479
789 1 2.22478 27.1467 33.279
7434 1 1.45132 29.8481 32.8511
2121 1 34.9506 31.3527 34.9385
6755 1 3.08464 30.3148 30.9355
795 1 6.2249 32.1323 32.0863
691 1 1.86482 29.4235 35.2334
7069 1 3.84263 29.4452 33.4064
2679 1 6.53577 28.5034 33.8861
6041 1 3.70893 31.8739 32.7606
2524 1 5.6251 31.1145 34.061
4220 1 5.64127 29.3997 31.4713
6045 1 4.83622 8.12161 35.5218
7572 1 10.0014 30.7548 31.2453
1329 1 7.7045 30.1976 33.1549
5474 1 10.5847 28.3885 32.5745
6050 1 10.3622 30.6325 33.7909
760 1 12.3079 28.6946 30.9622
4030 1 14.443 31.8138 32.4142
860 1 12.5247 27.5816 33.1675
5020 1 14.6322 29.2791 33.2031
2521 1 14.5234 29.9968 30.6594
3076 1 12.5902 30.4729 32.7746
4360 1 14.2298 31.27 34.6318
4556 1 16.6225 30.7421 32.9984
61 1 17.2653 28.7534 34.0805
3317 1 17.9676 30.4191 31.4655
7958 1 16.1918 28.4627 31.4305
5236 1 21.1073 29.6981 30.8342
3339 1 14.9391 27.2145 34.521
3237 1 0.834359 26.958 35.4097
6136 1 23.0174 32.1018 32.9806
1880 1 18.4851 30.9328 33.8455
1493 1 23.1013 30.7223 31.0963
42 1 20.8491 32.0499 31.3289
4782 1 19.6081 28.2655 33.1918
2518 1 21.2177 30.3791 33.108
1819 1 23.3999 29.3083 33.0591
4231 1 25.1975 28.0991 33.7591
3880 1 27.0582 29.1954 31.5532
4530 1 25.1954 31.4258 34.2691
7261 1 25.0438 30.474 32.3878
2035 1 30.1997 29.3797 34.9422
2846 1 27.0029 30.0603 33.8238
5149 1 27.4227 31.9772 32.8009
5312 1 30.5311 31.1182 32.2451
6447 1 29.2157 29.2326 32.9102
4611 1 32.0339 29.7095 33.7667
4641 1 10.5109 27.4105 34.6841
2534 1 30.9551 27.8282 31.2113
4276 1 16.6198 11.1225 35.2938
7420 1 36.1504 29.1804 30.9359
3320 1 34.9388 30.4665 32.7411
2692 1 33.762 28.5845 35.1781
5499 1 34.3037 28.2679 32.9961
2690 1 -0.568439 29.3 34.6933
31 1 2.00591 32.7996 31.3105
458 1 1.12029 0.396166 31.5073
4453 1 0.2825 1.07833 33.5538
5570 1 1.83282 33.6074 33.6232
2996 1 0.359098 34.4705 31.9646
6116 1 4.20604 33.3725 31.1063
5956 1 4.0721 33.1731 34.7814
5981 1 3.94525 35.8293 35.0664
7720 1 5.38887 35.1899 30.3047
2673 1 2.64481 35.1655 31.1945
2863 1 4.36385 34.4527 33.1174
2749 1 7.10113 34.236 32.3948
955 1 21.0555 35.8361 33.1671
3328 1 11.2103 35.266 33.2753
4930 1 2.6807 1.43576 34.5138
7161 1 8.65198 32.3059 32.7711
1164 1 8.58686 35.296 33.8286
2459 1 9.49601 35.243 31.3489
6550 1 7.01681 33.0988 34.5508
7869 1 9.51307 33.4389 34.7547
5710 1 13.47 -0.181125 31.4487
5965 1 14.9089 34.0505 32.5429
676 1 13.7472 34.2107 30.7163
195 1 12.6096 33.1963 32.9467
7330 1 10.718 33.356 31.7007
7482 1 18.5819 -0.488612 31.9844
3399 1 16.2584 32.7825 34.0389
7101 1 16.0244 32.3854 30.8724
4840 1 18.1069 32.5349 31.4325
5637 1 18.5264 33.2438 33.6253
2514 1 16.5635 35.1358 34.149
2530 1 16.3649 2.31861 34.7082
5341 1 22.8087 33.2991 35.1149
4608 1 1.46995 18.1936 35.3316
283 1 16.1642 30.2236 35.2723
1422 1 7.81113 11.6547 34.6791
6673 1 11.7628 15.8783 34.1934
4769 1 -0.369074 22.6741 35.5354
6690 1 12.8093 4.54233 34.9735
3874 1 20.7128 26.3916 35.4066
7980 1 12.5631 18.2309 34.7667
7798 1 15.4338 8.97998 35.2817
1885 1 11.7376 12.5678 35.4041
7229 1 7.96558 31.265 35.3401
6533 1 5.54094 11.9693 35.3597
941 1 27.127 34.2816 35.2957
4050 1 12.7212 24.3178 35.5257
5419 1 21.0853 20.9775 35.5377
6839 1 25.56 29.028 35.5651
7169 1 7.93813 14.6159 35.5012
3818 1 9.82689 16.4027 35.2003
288 1 16.5769 7.13128 35.2386
2614 1 11.9 34.2211 35.4172
1783 1 14.1981 1.59756 17.3227
4102 1 23.9088 0.238148 17.2599
5942 1 30.6561 10.9645 17.4222
7628 1 0.921472 14.5283 17.2453
3383 1 21.9809 1.72857 17.3508
5382 1 27.1037 21.9677 17.2688
3222 1 19.4973 33.0543 17.2311
2103 1 14.3036 16.3831 17.2043
6022 1 30.7352 14.4798 17.3591
7703 1 3.28385 16.192 17.3362
582 1 4.90202 22.0703 17.2397
983 1 10.6225 1.45989 17.2462
2982 1 16.0168 21.9225 17.2293
2616 1 1.71557 2.45208 40.1094
5887 1 35.6058 3.87681 37.2803
2774 1 2.06779 0.0257381 39.5178
4206 1 2.34182 2.85675 37.218
2136 1 2.65833 0.422692 37.1283
5520 1 0.585351 1.24483 38.0763
2766 1 4.13347 1.51991 38.5024
214 1 4.38519 1.75439 36.0822
2377 1 3.74171 3.68221 39.0615
6777 1 22.415 24.5923 36.1364
627 1 6.05613 0.223069 38.8898
3841 1 8.20758 0.592315 40.0989
2429 1 9.54984 1.73308 38.3012
7893 1 9.42152 3.83564 35.6907
4051 1 10.3797 1.4159 36.0431
125 1 11.5144 -0.33354 37.7034
5256 1 7.24027 1.62393 37.6106
4922 1 13.7502 1.49966 37.3779
1595 1 14.4307 2.54879 39.1335
7824 1 11.6405 3.04199 36.5409
3113 1 14.7007 3.37871 36.497
7016 1 12.4366 0.302505 39.7689
5793 1 16.0917 1.54579 40.5458
1873 1 4.43542 24.5185 35.8129
6294 1 17.7086 3.35811 38.8951
7910 1 16.1946 34.9507 36.7529
4600 1 15.5138 0.0593595 38.9998
1180 1 19.5892 1.60755 37.9438
2120 1 19.1955 3.78863 36.7169
7731 1 18.3799 0.940887 39.8139
5968 1 18.1075 3.23895 41.4144
5720 1 24.2397 -0.493325 38.2389
3400 1 21.054 0.562603 39.9765
1957 1 19.8599 2.7823 40.1848
7642 1 20.751 0.480845 35.9403
3179 1 5.78081 28.891 35.9426
5723 1 23.4722 0.750196 40.3427
4880 1 21.83 2.29723 37.8266
1638 1 25.9892 -0.290497 39.7029
3890 1 27.6815 -0.297979 35.8523
6759 1 26.4514 1.22516 37.6965
3826 1 27.6678 1.63855 40.0642
1987 1 17.5257 20.6366 36.927
6233 1 25.306 2.01264 39.3185
1655 1 32.7597 0.674509 35.9959
4153 1 29.0179 1.32411 37.4812
46 1 31.2902 0.380324 37.8139
2840 1 34.4656 -0.377484 39.5575
2031 1 -0.36564 0.900246 40.2585
1508 1 35.4477 35.4612 36.5277
3807 1 34.9593 1.18085 37.79
854 1 36.1078 3.34471 39.6899
6853 1 30.7886 2.61924 36.1551
6365 1 18.5305 24.7898 35.8777
3877 1 1.08518 4.86011 36.9193
434 1 1.63021 4.64629 39.3924
5586 1 -0.0492402 6.86295 35.6497
5990 1 -0.0482777 6.19493 38.3566
1573 1 34.9049 5.32716 39.167
5997 1 2.74645 6.44382 38.3562
5954 1 9.99471 10.6197 35.8947
7235 1 4.99584 5.50138 38.5413
4228 1 28.6651 7.17957 35.9232
845 1 12.6027 -0.298344 35.6595
1258 1 6.61058 3.79066 36.9815
4052 1 4.04393 4.41308 36.6496
5632 1 32.2428 26.9358 36.2773
2933 1 5.18409 7.53189 37.6575
4044 1 7.51429 5.86713 37.9164
1033 1 9.28359 3.85149 38.1019
3736 1 9.38145 6.32751 36.4466
3664 1 25.0243 24.9121 53.2456
1506 1 11.3171 5.03193 38.5662
5980 1 11.6263 5.71079 36.4625
3669 1 11.229 8.6147 36.4028
4285 1 14.5941 5.8695 36.2466
2850 1 13.1728 6.56908 38.3866
4226 1 13.571 4.26616 38.0696
7075 1 27.1486 5.05503 35.946
5261 1 30.7397 25.0048 37.2121
6055 1 15.5582 5.10239 38.6886
5397 1 17.6443 5.98338 37.2917
1590 1 3.08738 19.5777 36.1318
7666 1 15.4056 7.85764 37.7947
3325 1 17.3169 7.32009 39.364
3739 1 19.2576 5.08105 39.2712
4670 1 23.121 2.89931 39.9214
6862 1 19.7772 7.30997 38.4178
1790 1 21.026 5.00759 37.778
7403 1 7.42097 17.4318 35.6988
2271 1 29.6003 33.6143 35.8445
2047 1 23.5704 4.84352 38.2713
2527 1 21.8072 7.27704 39.4559
759 1 22.9146 4.3245 36.0425
1394 1 25.7422 5.70258 37.9511
1787 1 23.6546 6.33282 40.271
4358 1 27.3645 7.64016 37.7802
522 1 27.11 3.88302 38.4861
7248 1 25.3744 3.27465 36.9503
6056 1 25.3617 4.28534 39.9272
6137 1 26.9369 6.56908 39.842
7429 1 29.2154 2.88811 39.1986
5014 1 28.7136 5.67973 37.9365
475 1 2.58415 6.76578 35.8987
516 1 30.8775 6.72725 37.1693
1820 1 28.6992 3.47565 36.4789
4621 1 30.9211 4.20294 37.992
51 1 32.8247 5.90419 38.0141
4603 1 34.6219 6.06958 36.6842
991 1 33.2554 3.54615 38.0353
2080 1 24.2066 21.2624 36.7946
7797 1 29.6337 27.2922 36.3704
7667 1 1.85303 7.74932 40.1282
2770 1 0.316977 9.6254 39.4079
616 1 0.875981 8.58262 37.3633
4866 1 1.80628 10.7256 38.1901
3009 1 0.289524 11.8119 40.9907
5320 1 0.0799749 10.8112 36.6687
688 1 34.2557 33.626 50.5177
4788 1 19.8453 32.0457 35.7022
4619 1 3.34466 8.7676 38.1361
768 1 2.87134 9.32435 35.7562
7561 1 6.74691 9.87281 38.7992
1172 1 5.65821 9.8335 36.6538
3638 1 7.35022 11.7237 37.0107
7001 1 7.03229 7.54917 36.2643
3484 1 20.7232 34.5851 35.8197
1789 1 9.2443 8.40601 37.7302
1198 1 9.17046 10.8547 38.5998
4781 1 9.55233 10.428 41.1812
1975 1 9.31068 6.48589 39.1037
1567 1 13.0273 8.94303 38.0977
2358 1 33.7161 25.1055 36.7536
7340 1 11.7922 11.0421 37.6169
3422 1 14.3396 13.1493 39.2343
7905 1 13.956 10.7359 39.1933
5266 1 15.1949 23.7023 36.0902
1482 1 16.7096 11.9244 38.8123
6677 1 14.0343 10.9989 36.4834
2041 1 11.3321 7.81974 38.8209
4053 1 18.3046 9.59882 39.061
2781 1 16.1652 9.92306 40.3074
2128 1 15.9226 10.1112 37.4008
589 1 7.25549 19.8973 36.0166
1786 1 18.5483 11.1753 37.301
4196 1 17.6698 8.24167 37.0376
6684 1 18.2683 9.44735 41.5379
7237 1 22.9811 9.35927 40.4141
6387 1 22.8835 11.3537 39.369
4382 1 20.2612 9.61838 37.1555
6921 1 22.5313 9.00825 38.1687
927 1 23.0338 6.80122 37.0761
3479 1 26.6446 11.4091 38.0249
4474 1 25.0187 7.56958 38.6974
3882 1 8.6867 24.5216 36.5156
3166 1 29.432 7.84781 38.7613
3084 1 30.2657 8.7361 36.0324
7173 1 29.9269 10.0279 38.5917
2942 1 32.6439 10.382 37.5478
3805 1 28.2149 9.9384 36.8826
3036 1 32.0606 8.6741 38.9036
3886 1 30.6477 10.908 36.0286
5959 1 3.29738 11.4346 36.3128
4207 1 27.7869 9.2045 39.5617
3011 1 32.8229 8.02378 36.5285
1086 1 34.9751 8.06226 38.0285
874 1 35.4624 8.70308 35.9014
7963 1 34.6952 10.2331 37.5112
3155 1 34.1537 9.98362 39.6164
3629 1 31.5869 10.7573 39.9784
3803 1 3.88659 14.1809 37.0405
7882 1 1.86932 12.8511 37.2132
6860 1 2.73003 12.7877 39.5342
7477 1 2.59261 15.4664 38.5702
7083 1 5.19128 16.1785 38.0172
5988 1 4.22527 11.056 38.7861
5722 1 13.7213 7.94325 36.0693
7404 1 6.31687 13.8722 37.2628
5748 1 7.0833 14.891 39.5779
2937 1 33.8928 33.436 53.1676
5167 1 14.4803 19.2625 35.8282
3121 1 10.943 13.5791 39.0605
1259 1 8.30927 13.2457 38.28
3973 1 12.0591 11.9783 39.7201
7495 1 9.64758 15.7006 39.6865
4767 1 9.87795 12.7008 36.7334
2624 1 5.18658 34.3999 36.4976
5326 1 12.4359 13.4092 37.3632
992 1 16.9678 14.2674 39.3277
6293 1 12.736 15.2978 38.9014
2755 1 14.6995 15.043 37.2679
4467 1 20.7495 6.89685 36.3995
2930 1 18.8481 12.9965 38.6934
3194 1 18.1926 14.3248 36.9808
3018 1 20.5433 15.4943 40.7502
155 1 19.8354 12.8088 36.1571
6058 1 18.0942 16.391 39.0761
1642 1 18.2418 13.776 41.3956
3817 1 16.1913 12.9014 36.8019
7878 1 20.0301 15.1653 38.3706
1742 1 24.4747 10.5673 37.7634
1491 1 21.2005 14.9834 36.3008
5966 1 24.5149 14.8848 39.5139
2941 1 21.1931 13.3035 38.1301
1978 1 20.0286 11.1282 39.1315
3632 1 16.9405 3.91463 36.8548
7179 1 28.9054 11.7619 39.4444
6138 1 23.3302 13.5439 37.7434
2606 1 25.1341 15.4828 37.5007
2200 1 29.3287 14.9074 39.9204
3972 1 27.3911 13.7306 38.7069
5329 1 24.8892 12.6407 39.6045
4355 1 30.9428 12.4421 37.6417
679 1 29.7931 14.5452 37.3596
2995 1 32.2207 14.3234 36.1602
6603 1 28.6805 12.1584 37.1152
5907 1 30.9128 13.2166 39.8427
6039 1 32.476 14.5441 38.2234
7474 1 32.1328 5.01857 35.7738
1170 1 33.1582 12.4336 39.413
448 1 35.9422 12.2684 38.4123
6761 1 33.8976 12.6982 37.2413
4606 1 36.058 14.8047 37.6607
360 1 -0.212967 13.1183 36.2851
3246 1 4.02666 18.2202 38.1054
4280 1 1.38404 15.3968 36.6522
3798 1 1.70099 17.4427 38.0203
3309 1 1.19177 18.7529 39.9335
4449 1 0.794565 19.3374 37.6304
1016 1 5.17874 18.3534 35.585
769 1 2.89675 17.0263 40.0951
2693 1 6.4764 18.4184 37.9063
4128 1 5.85689 16.0178 35.6636
863 1 34.1992 3.11894 35.7183
3637 1 10.1501 15.2107 37.2601
1478 1 7.55569 16.0199 37.7493
2701 1 11.4203 19.0486 38.8
4197 1 8.39143 0.293608 35.6709
7423 1 11.0788 17.3723 37.4176
3404 1 8.85789 17.9713 37.9377
3173 1 23.2246 28.7699 36.2839
3229 1 13.354 18.3124 39.7046
3257 1 12.1166 15.7227 36.1983
6289 1 13.6152 17.2286 37.5909
933 1 13.702 20.0194 38.1788
7652 1 15.0187 15.9384 39.3338
3356 1 15.4087 20.1683 39.8624
3558 1 25.7235 9.54507 36.1421
2618 1 35.5559 35.3194 51.8
1169 1 18.0062 18.5296 37.7859
4841 1 19.4461 16.5242 36.7215
2753 1 16.649 16.5497 37.3471
2597 1 20.3447 17.7374 39.0283
7405 1 23.6532 16.8095 35.7458
4855 1 23.3065 19.2113 36.0566
5166 1 21.8164 17.4733 37.1718
1813 1 19.6547 20.0903 39.5945
2063 1 23.738 17.9293 38.5901
6051 1 23.0693 5.21486 53.6313
6999 1 20.274 19.3316 37.4662
2682 1 25.5371 18.0453 36.4303
2526 1 26.6703 17.2938 38.3789
5568 1 26.6306 19.4575 40.3809
462 1 25.333 17.2037 40.3142
7000 1 27.5301 15.4765 36.8091
6558 1 21.831 18.4092 53.5241
709 1 29.0114 16.6489 38.6909
6283 1 28.9307 17.389 36.5499
4198 1 31.1771 16.6217 37.137
772 1 30.0825 19.4006 36.7456
6456 1 33.4972 17.8406 37.669
6001 1 34.1148 15.674 37.2582
6624 1 32.1126 18.5701 36.1098
2302 1 0.30426 16.395 40.0523
780 1 35.1406 17.4415 39.3079
6388 1 36.0986 17.3497 37.2251
605 1 1.32377 21.1061 40.1242
5231 1 1.59796 21.481 35.9337
7419 1 -0.436813 22.5772 40.1722
6461 1 3.07287 24.3217 40.1555
7024 1 2.82208 20.5741 38.133
284 1 3.94745 23.141 38.1679
7870 1 1.53511 22.6637 38.0387
535 1 1.99881 23.858 35.7476
5275 1 11.3752 33.8141 51.1868
5549 1 5.20975 20.2061 38.1191
4289 1 6.42423 22.3541 36.1574
7310 1 8.73706 22.7874 39.9581
6203 1 6.41831 22.3974 38.7006
7400 1 8.5802 22.2521 37.7405
5390 1 15.0827 0.163796 35.6044
4676 1 20.4877 23.1421 35.5654
6846 1 12.0241 19.6889 36.4033
2197 1 9.81749 20.404 36.715
998 1 11.7328 21.5591 37.7489
1078 1 8.04113 20.1787 38.3079
3954 1 10.2411 20.923 39.5649
2997 1 10.3211 23.6638 38.2893
7410 1 15.8121 18.6871 37.8716
297 1 14.3725 22.3494 39.3191
775 1 13.0446 20.7693 40.3455
209 1 13.4119 22.0159 35.797
7327 1 12.8443 23.7424 38.0889
512 1 14.2129 24.5392 40.6204
4215 1 17.6079 20.9866 39.2805
6797 1 16.4703 22.7663 40.4048
706 1 15.1224 21.5395 37.3943
3265 1 18.2509 23.4275 38.3371
3717 1 19.8541 21.7515 37.5129
4705 1 -0.304762 33.8602 49.7107
5396 1 22.4586 19.8408 38.1982
2609 1 22.0757 22.7308 37.3136
7894 1 21.9313 20.3415 40.4502
2279 1 21.255 22.3593 39.4853
5124 1 17.2931 22.7513 36.2294
7077 1 24.688 23.6341 36.7559
3586 1 23.4961 24.6994 38.5734
4602 1 27.5176 19.4917 37.7707
6757 1 24.9178 20.1188 38.7232
4509 1 28.0163 21.2863 39.9823
1658 1 23.7371 22.2153 39.1566
129 1 26.4344 22.3144 38.2075
3008 1 26.2002 20.5953 36.1696
6202 1 28.3959 21.5688 36.7471
4942 1 32.1837 23.0846 37.5188
6118 1 30.0003 20.8947 38.7457
2925 1 31.9639 21.3366 35.732
6395 1 5.49608 5.69047 36.0009
1645 1 34.8469 19.4014 36.6207
4386 1 35.9115 21.4916 37.6351
7993 1 35.5205 19.6156 39.111
541 1 32.7906 20.6217 37.862
5564 1 34.0284 22.0396 36.6005
5590 1 34.111 22.0408 39.4473
2826 1 2.90729 25.4527 37.6922
5007 1 -0.0397368 26.4014 40.2255
2859 1 -0.18652 24.9645 36.4797
2122 1 0.83726 24.574 38.9972
7559 1 1.20841 26.727 37.715
3887 1 3.5191 27.8361 35.7387
4751 1 6.1895 24.6029 37.5789
2111 1 5.43429 24.0391 39.7701
1263 1 4.54882 26.513 39.5294
5802 1 5.26355 26.5014 36.6318
6160 1 30.8594 -0.437657 52.3049
1724 1 7.14879 26.5879 38.124
2308 1 2.77357 27.8236 38.4091
3406 1 9.20524 26.7814 36.5174
1585 1 11.2327 25.6329 37.1422
2934 1 9.61794 26.3635 39.3793
2362 1 33.0137 30.8209 36.492
6375 1 28.4435 35.1073 51.5122
5649 1 28.672 29.2467 53.832
5356 1 11.7615 25.4303 39.507
4063 1 11.6505 27.6726 39.3999
712 1 11.9725 27.9278 37.2276
4858 1 28.2422 23.4032 53.8319
1953 1 15.8211 28.2501 36.9565
1726 1 13.7306 26.1462 38.8375
1824 1 15.516 24.1927 38.6301
544 1 16.0831 27.0653 38.8271
6381 1 23.3498 1.63534 36.2011
4275 1 16.8632 25.3526 36.9294
1244 1 18.3402 25.7954 39.1447
685 1 20.3508 24.5371 37.7812
1428 1 14.4167 25.8964 36.6063
4201 1 20.6714 26.0692 39.4892
929 1 22.1794 26.5161 37.4995
4511 1 25.0189 0.04471 35.8176
7593 1 19.3588 26.5723 37.183
3569 1 19.8749 28.1231 39.1365
7484 1 19.9028 24.7279 41.0142
6939 1 29.1267 33.1377 50.921
7961 1 8.59758 14.1589 52.9223
7670 1 27.6545 23.6121 36.3809
1727 1 26.108 26.0991 35.9588
865 1 25.899 24.7573 38.2503
1330 1 24.8262 26.7231 37.721
6065 1 24.4452 26.1755 40.5574
1965 1 27.8192 25.8948 37.1896
7823 1 28.9307 23.4673 38.8036
6369 1 29.9579 22.8256 36.105
3090 1 33.4517 23.4404 41.5631
525 1 28.5528 33.7564 48.8393
526 1 29.2455 25.818 38.6987
6922 1 29.4853 28.2154 38.51
5251 1 35.218 23.7509 38.2301
6154 1 32.8271 24.7124 39.4542
4471 1 29.8632 21.6481 53.9764
4947 1 34.9897 24.7003 40.5697
3642 1 33.8155 28.1511 37.5584
7799 1 35.1691 26.0884 38.0627
5476 1 34.0921 27.2852 40.1343
7430 1 32.0224 33.1921 49.3097
3660 1 1.01831 31.4789 36.7223
5796 1 1.2851 28.6045 40.1798
4604 1 35.7655 30.3923 39.7828
1652 1 1.66712 31.1129 39.1038
1634 1 0.95238 29.4047 37.5015
461 1 1.39178 33.6811 39.3245
5883 1 28.453 33.8188 53.3786
3186 1 4.88669 31.1964 39.185
2699 1 5.11513 32.3465 37.0339
1962 1 3.29085 30.0836 38.0501
7817 1 5.07679 28.5251 38.0853
7157 1 7.50706 30.1652 39.9678
7346 1 7.35686 27.2621 40.2821
4361 1 7.18968 29.1269 38.0683
1881 1 9.52116 28.3604 38.1323
6195 1 8.7269 32.6559 36.8617
4277 1 9.38669 30.886 38.4826
3559 1 10.6771 29.994 36.2337
2154 1 30.4329 34.8358 50.055
6441 1 11.1699 32.0083 37.5076
2683 1 9.97634 28.9201 40.5456
1413 1 11.6383 29.9165 38.6421
4517 1 13.0494 30.4131 36.8476
5812 1 13.9174 28.5724 38.4443
4758 1 13.6072 31.193 39.022
4071 1 30.6583 33.5855 52.5735
2449 1 18.9234 29.0573 35.9908
875 1 15.3805 30.5656 37.7239
6062 1 17.7281 31.4193 36.0885
633 1 17.8465 29.1532 37.9543
5394 1 19.6797 31.13 37.6835
2282 1 34.6084 31.3935 53.7742
2771 1 18.4684 2.0705 35.8495
7177 1 21.8448 31.5786 36.8396
4857 1 20.9907 28.5746 37.2014
6466 1 3.06035 16.8538 53.1734
5406 1 25.6048 13.1626 37.3438
6068 1 22.8192 28.1193 39.3924
4283 1 10.6745 23.4106 35.7324
6475 1 19.0596 0.740329 52.5595
6772 1 23.3961 30.1229 38.1198
612 1 26.5009 30.1713 37.4771
6837 1 27.5856 31.7551 36.139
7254 1 25.3537 28.7707 39.2124
7811 1 31.4731 29.2477 37.3036
5414 1 27.9075 29.5698 35.594
5040 1 30.7211 29.2576 40.198
3234 1 31.8936 30.9398 38.4787
453 1 28.9139 30.531 38.0531
4430 1 35.9637 27.9596 36.664
5315 1 5.6453 9.97985 53.5996
304 1 31.8482 27.0751 38.9183
2365 1 33.5001 29.4181 39.8706
1561 1 36.0675 28.2957 38.9861
4155 1 35.2569 30.5592 37.2447
7389 1 2.11875 34.3027 35.7147
7795 1 -0.316497 32.3774 38.3502
2622 1 0.470391 35.362 37.8084
4849 1 14.6418 11.8152 53.146
6308 1 35.1391 33.9283 38.764
7644 1 4.17029 33.4974 39.1
5962 1 5.91567 -0.0301205 36.6739
3114 1 2.73819 32.7226 37.4155
774 1 6.588 33.7429 38.3343
4927 1 4.03679 35.6052 38.1243
1890 1 7.01392 31.5227 38.0483
3550 1 8.86656 -0.5359 37.9085
1803 1 10.0697 35.7189 39.8829
6270 1 10.1699 34.2544 37.3969
558 1 6.50763 22.6067 53.6156
3981 1 0.917935 0.0563544 35.7979
4385 1 7.84331 34.7581 36.2705
4993 1 13.6792 35.2095 37.1243
3120 1 30.8853 36.0875 35.6139
2912 1 13.1677 32.7728 37.0314
5340 1 11.915 33.7709 38.9493
4777 1 13.7109 35.2166 40.302
4934 1 14.9426 33.9997 38.5617
4367 1 16.0501 31.8854 40.0962
4365 1 15.8115 32.6082 36.4978
1968 1 17.495 35.3894 38.7013
2045 1 18.0547 33.9093 36.169
7585 1 17.4564 32.8125 38.0795
223 1 19.6053 36.0567 38.0253
4279 1 19.9213 33.7394 38.1848
6623 1 17.7246 -0.0915686 36.3568
1731 1 22.2603 33.7448 37.622
141 1 20.1713 32.3618 40.0945
2033 1 22.0064 -0.206742 37.9854
1490 1 21.8601 34.7812 39.792
4757 1 24.1606 33.8005 38.9504
470 1 24.4005 34.3752 36.6749
6060 1 24.7451 31.9084 36.5704
6117 1 26.3145 32.9255 37.688
5755 1 24.812 31.6446 39.0047
2698 1 27.1039 35.225 37.9591
6923 1 30.3736 31.3795 36.3648
7976 1 29.3466 35.4009 37.2857
4510 1 31.8572 33.2464 39.4332
5574 1 28.8183 33.1731 38.2011
5874 1 27.2418 31.7599 39.6925
6605 1 26.3335 31.6423 52.8111
3888 1 33.2456 35.2126 37.8187
5011 1 31.9682 32.9588 37.0978
3489 1 34.6193 33.4826 36.4118
7183 1 33.8584 32.2054 38.5315
6619 1 35.7861 32.4438 40.5269
1663 1 34.9715 34.3076 41.6966
441 1 1.83856 0.303752 42.0102
1822 1 1.04711 0.604378 44.6036
2317 1 2.018 2.35479 43.275
4273 1 3.59982 1.26796 41.0827
6135 1 4.44941 35.887 42.4613
2117 1 4.1453 1.95299 43.516
2354 1 6.17796 3.03016 39.5967
6702 1 6.40123 1.08266 43.7747
5813 1 10.8172 1.40618 40.9878
5490 1 6.16333 0.745958 41.5539
1246 1 8.9387 2.85278 40.5839
2516 1 11.7518 1.78669 43.4623
857 1 8.62902 1.61803 42.6863
1646 1 12.5332 -0.415341 44.7468
3001 1 8.8635 4.26121 42.73
1826 1 12.122 -0.367948 42.2923
5973 1 14.8192 0.157689 41.9926
3082 1 13.3524 1.93902 41.4336
2441 1 16.1125 3.0757 44.6961
5112 1 15.8352 2.46325 42.467
233 1 14.0705 1.33626 44.0916
1011 1 15.012 -0.435595 45.5913
4620 1 16.4657 0.781085 43.9781
6835 1 17.6654 -0.19258 41.8878
3600 1 18.1899 1.6605 43.0573
3662 1 20.339 3.18807 42.4296
2457 1 21.1907 0.911502 44.0629
5408 1 20.2155 0.865587 42.0494
3032 1 23.3986 3.58562 43.8976
4774 1 22.8369 2.13186 42.0126
4072 1 23.3684 0.809291 44.0911
7568 1 22.5447 35.8505 41.9127
2123 1 21.3081 3.10083 45.4539
5502 1 25.5386 2.07885 44.3801
6232 1 25.3179 0.401817 42.4541
199 1 25.0793 2.33497 41.43
925 1 27.2753 1.61289 42.8244
6612 1 27.0462 36.0902 43.8811
282 1 27.8099 2.87212 45.2825
639 1 27.2706 3.85181 40.7951
1519 1 28.8735 0.868353 44.3177
2867 1 31.3924 2.62812 39.5245
3757 1 29.7777 1.61298 41.9215
5168 1 29.9663 0.880816 39.8865
7564 1 30.1564 36.0443 41.5572
6598 1 31.991 2.75522 42.4236
5412 1 32.43 0.552972 40.2968
3738 1 32.2817 3.02355 45.6183
1403 1 30.353 2.54298 43.9666
3596 1 -0.120442 1.62896 42.5386
7833 1 33.7691 2.47821 40.201
5578 1 32.3818 -0.174874 42.2444
6297 1 33.9818 2.29662 43.8454
451 1 34.9767 -0.0205116 41.9401
63 1 1.09052 3.96475 41.911
6626 1 -0.0354727 2.77293 45.2685
546 1 2.97518 5.66834 41.3491
7966 1 2.76235 4.51432 43.6495
4144 1 0.316528 4.74339 43.9673
7262 1 2.37184 7.09138 43.5999
3881 1 1.10263 6.65865 45.5136
3802 1 -0.313825 5.59997 40.8015
1400 1 6.93508 3.42982 41.8329
4070 1 3.70966 3.50037 41.5698
2767 1 5.31123 5.15199 40.8091
2591 1 7.39382 6.23756 43.4686
3667 1 4.63725 6.92673 43.7403
1728 1 5.23377 4.4154 43.939
2321 1 7.01066 3.13694 44.9477
2297 1 11.5191 2.71088 38.9887
40 1 7.6093 5.08297 40.1684
3238 1 10.8871 7.70856 41.3124
6044 1 10.2237 6.6154 43.6761
5508 1 10.3808 5.13436 41.2237
5881 1 12.3956 6.13573 43.0278
7243 1 12.1583 3.73251 41.4646
7025 1 12.7064 6.14407 40.7446
3650 1 14.9094 3.98471 41.1203
1654 1 14.4132 7.8667 40.3477
3628 1 15.1785 5.67461 42.2759
6631 1 13.8633 3.88524 43.5041
4111 1 17.2397 4.6719 43.3204
3995 1 20.7402 9.4134 40.3643
228 1 19.3638 5.28705 42.6494
6211 1 19.0525 3.99148 44.9991
4800 1 17.1124 5.17634 40.5676
7166 1 15.4139 5.27819 44.8728
4379 1 17.3579 6.63409 44.2425
5652 1 21.2855 4.51938 40.5028
146 1 22.756 5.01535 45.8485
1234 1 19.9406 7.03892 45.2492
2713 1 23.9131 5.80269 43.6781
1171 1 21.1869 5.25264 43.9416
5181 1 21.0571 6.97266 41.7127
1835 1 28.5321 3.50988 43.1172
5715 1 26.1891 4.08268 43.2006
3901 1 23.2963 4.55502 41.6938
2688 1 26.4208 6.36263 43.7363
3671 1 25.5416 5.83317 41.8584
6152 1 29.1027 5.37875 39.9897
3793 1 30.168 4.06699 41.7182
1092 1 31.3218 6.46321 39.6715
2159 1 27.8997 5.80455 41.8433
3643 1 35.0939 3.64215 41.9874
609 1 31.7921 4.73743 43.6403
3474 1 32.7011 4.83148 40.6142
363 1 34.011 5.50844 42.6688
6133 1 31.3456 6.62162 41.7402
6372 1 34.8136 4.19765 44.7326
6636 1 33.8735 7.2183 40.0872
6845 1 2.56685 10.6097 40.5281
923 1 3.60778 8.3349 41.8314
4376 1 -0.235277 6.83419 43.0046
5809 1 3.0978 9.80168 43.5933
6800 1 1.21709 8.71291 42.0888
4451 1 0.72376 8.95224 44.8299
1969 1 4.28083 7.19202 40.0045
4366 1 5.08831 9.35684 40.5037
7015 1 6.59911 7.11364 39.9405
6367 1 5.97337 8.11748 42.0783
2776 1 5.31431 9.14595 44.7099
1326 1 5.3319 10.4075 42.9052
1952 1 7.23421 12.1466 41.8615
2193 1 9.00537 8.66201 42.7887
5114 1 8.57278 6.58004 41.47
7661 1 8.87544 8.46622 40.1516
3116 1 9.43857 10.657 43.572
5097 1 7.32141 8.28469 44.1206
4476 1 7.40115 9.80927 41.3859
465 1 11.3258 10.1549 42.3955
357 1 13.2484 8.37927 42.3526
6539 1 15.1552 9.88401 42.5602
2285 1 12.4745 9.50983 40.5202
776 1 14.0819 11.5069 41.5218
1248 1 12.8744 11.4749 43.7414
3005 1 16.5382 8.99174 44.2735
6688 1 16.8305 11.3831 42.072
3111 1 16.4607 7.77102 41.8678
4537 1 20.5406 9.67979 45.1092
4190 1 18.9818 6.99029 40.9042
5510 1 18.3051 10.5836 43.9265
953 1 18.9904 11.636 40.8609
7081 1 20.8785 13.2097 40.6087
3950 1 19.8994 12.1427 43.0447
3666 1 21.8 11.0255 41.6993
7519 1 19.3313 8.21796 43.1114
1424 1 21.5157 9.14971 42.9417
3808 1 24.2006 10.5921 42.1395
1401 1 25.4586 10.3523 39.891
4062 1 27.2492 10.5015 41.7813
1333 1 25.6974 9.11662 43.292
202 1 26.0468 8.38545 41.0035
699 1 25.8892 12.1075 43.1666
2448 1 27.8741 9.72372 44.5441
4267 1 29.3989 7.40489 41.2978
4 1 30.1634 7.9531 43.7614
6366 1 31.6402 9.01649 42.0513
1324 1 29.3737 10.0095 41.0968
6197 1 27.9959 8.21567 42.8634
1006 1 28.8917 12.653 42.2992
2834 1 30.0752 10.4024 43.3518
866 1 29.817 9.19705 45.8982
2053 1 36.0745 7.83693 40.2767
7520 1 35.5111 6.43427 45.2533
4852 1 33.8194 10.5743 42.1334
1672 1 32.682 9.5184 44.3568
2555 1 34.1597 8.19335 42.4636
7489 1 35.5285 9.19086 43.9024
5738 1 0.420218 13.965 39.3974
4543 1 1.14689 14.1619 41.3989
6613 1 2.6993 12.0546 42.7049
6785 1 4.94522 13.8402 39.2262
3636 1 0.680947 10.9083 43.4931
6123 1 4.88794 12.0023 41.1396
7347 1 -0.168208 13.6367 43.3287
2907 1 35.0405 12.8434 41.2033
608 1 3.64994 14.5971 40.9826
2626 1 4.95709 12.9968 43.477
111 1 8.35574 15.0225 42.9924
7595 1 6.12973 14.1725 41.4332
6833 1 6.19163 15.3033 43.7328
4859 1 10.585 14.928 41.7501
3087 1 6.5583 12.18 39.2962
380 1 10.8402 12.4154 41.8515
843 1 10.0099 15.4495 44.3596
3758 1 11.9078 13.4613 43.5461
700 1 8.90528 13.4886 40.765
2762 1 12.4803 14.0255 40.9086
3659 1 15.4182 11.1943 44.373
4356 1 13.7934 15.8855 41.1964
1647 1 14.2505 13.7065 43.0968
5482 1 15.786 13.5118 41.2593
6141 1 14.8966 16.5778 43.1646
2769 1 12.4371 15.7258 43.1722
1844 1 16.9272 15.9712 41.1544
1629 1 16.3595 14.7233 43.2222
1565 1 19.5364 14.1253 44.7384
7717 1 19.298 15.8621 42.6897
6357 1 16.6217 15.0837 45.4341
3516 1 18.9273 18.5203 43.4929
6464 1 23.8125 12.9338 43.4631
4935 1 22.3563 15.6694 38.697
4839 1 23.2323 13.0667 40.9565
7486 1 21.4106 14.3113 42.9075
6285 1 23.4282 15.0094 43.6921
5839 1 27.0813 12.8926 40.8096
4350 1 25.5812 14.4568 41.9366
1075 1 26.8777 15.4863 39.9735
386 1 27.7297 15.1959 42.3442
4047 1 27.8071 13.582 44.3126
7117 1 28.129 16.6442 44.114
2640 1 25.7025 14.3067 44.8285
2076 1 30.5988 14.3942 42.0373
3804 1 31.166 16.5912 39.8222
4349 1 31.7007 12.2545 41.8081
3424 1 32.7861 11.9265 44.0639
6054 1 29.7055 16.4075 41.9108
4634 1 32.1568 16.1948 42.7106
1265 1 35.001 14.8709 39.6578
6359 1 35.8702 9.86306 41.6596
5728 1 35.059 11.6531 43.6119
4286 1 32.9326 14.2567 40.7011
6714 1 33.4968 13.8895 43.177
7741 1 2.52271 16.7569 42.6527
1153 1 0.742771 18.3915 42.9146
456 1 0.241281 16.0027 43.6925
3332 1 35.6599 17.2046 41.853
1591 1 5.10459 16.1324 40.1816
2278 1 4.48564 16.5701 44.2782
6368 1 3.66855 19.3201 40.0629
1005 1 4.84341 17.0252 42.1084
207 1 6.3807 20.4731 40.2969
2862 1 7.0012 19.0812 42.2286
2149 1 9.73124 17.6653 40.5675
3978 1 8.64453 19.8828 40.6682
3577 1 11.583 19.2723 41.2065
145 1 7.71876 16.5222 41.4894
3961 1 5.87141 18.2052 40.082
126 1 10.8225 17.2622 42.5091
5566 1 7.48441 16.9991 43.6863
4373 1 11.8203 16.8816 40.2471
5815 1 13.3642 18.008 42.4147
2064 1 12.1949 20.6287 43.0339
4842 1 16.2513 18.0534 40.2453
3073 1 16.0614 18.8409 42.6525
2447 1 17.8646 19.3676 41.3632
531 1 18.9237 17.3298 40.8855
2442 1 17.3012 16.9713 43.582
4195 1 17.4263 20.0044 44.6423
2199 1 22.5269 17.7526 40.5275
7002 1 21.2015 17.0705 42.5303
6536 1 23.0057 15.4545 41.1704
6219 1 23.7286 17.8755 42.4005
5230 1 20.4065 19.3083 41.7152
2917 1 21.3748 19.1104 44.29
680 1 24.3447 19.5354 41.0232
2127 1 27.8889 17.4254 40.7819
3999 1 25.52 16.4033 43.294
5509 1 26.4667 18.4704 42.5318
6373 1 27.2684 19.8409 44.3236
6686 1 29.051 18.8083 39.5111
2219 1 33.17 19.8035 43.2048
7421 1 30.716 18.4238 41.046
198 1 29.8184 20.5778 41.8034
7242 1 31.6391 18.6668 38.6706
2615 1 31.0698 18.843 43.4068
7171 1 33.5458 16.481 40.4903
2269 1 35.3443 19.1466 43.8687
7892 1 34.1787 17.2377 43.638
7416 1 35.1166 14.9464 41.9115
7659 1 33.922 18.8026 40.9909
4137 1 34.8961 15.4906 44.939
3574 1 3.53467 18.8038 43.5911
4287 1 -0.44963 19.6575 41.4385
6600 1 1.4017 22.6526 42.0545
6689 1 2.33235 20.2401 41.9927
7321 1 2.07201 19.7655 44.8676
946 1 3.31327 21.5358 43.9585
4199 1 6.13689 23.0327 41.4976
3710 1 4.42474 21.8691 40.3812
4847 1 5.3623 20.7381 43.057
6201 1 7.7565 21.4477 42.285
7265 1 9.50551 23.3686 42.5521
6537 1 9.40489 21.4569 43.8131
4833 1 10.7477 21.5534 41.6316
1806 1 9.85656 19.3799 42.7235
5741 1 11.3589 23.1389 43.9986
2202 1 11.7807 22.9403 40.0545
6115 1 13.2451 21.4445 45.0504
4470 1 13.1914 22.789 41.9749
1237 1 14.3186 20.4125 42.1816
3316 1 15.2701 20.8362 44.1578
5915 1 13.8395 23.9492 43.9886
1083 1 15.4721 23.4098 42.4495
4929 1 17.6669 24.5877 42.2941
3003 1 18.8606 22.5554 40.6114
4913 1 16.765 21.4599 42.3945
7153 1 18.9976 21.0367 42.652
6790 1 18.2491 24.8698 45.2046
4693 1 16.056 25.2909 43.9957
6781 1 22.0939 24.4365 40.2843
3095 1 22.7888 20.1188 42.744
1484 1 21.0519 22.4273 41.7881
362 1 23.42 22.4935 41.5331
5726 1 23.4342 23.0272 44.2186
4114 1 24.8239 23.9278 40.286
3344 1 27.618 20.89 42.3831
312 1 25.3277 23.7717 42.6291
1804 1 25.7653 21.6654 40.8953
2607 1 27.2353 25.7172 44.5903
1897 1 25.471 21.7973 43.6395
3035 1 31.1805 22.8159 39.636
2543 1 29.525 22.6384 41.4644
7086 1 27.7673 23.46 43.6175
5594 1 31.8977 21.8911 42.5962
6462 1 32.1223 20.4674 40.5581
7406 1 34.4642 21.0346 41.6311
315 1 35.7335 23.0586 42.3781
7960 1 0.0280492 20.9048 43.42
7573 1 34.2391 21.5886 44.0826
119 1 33.8276 24.128 43.6604
4122 1 2.48558 26.5198 40.3862
6694 1 3.82343 23.4876 42.1135
3905 1 1.36155 24.9387 41.7478
3515 1 2.3784 23.9839 44.4235
4843 1 4.02782 27.3943 44.8325
2214 1 3.27148 25.4438 42.7015
5150 1 0.120319 25.1519 44.1684
4294 1 8.01999 24.603 38.8136
5246 1 5.37388 25.847 41.4568
1431 1 5.73563 24.5582 43.4805
1087 1 8.08908 25.168 43.6173
1260 1 7.78635 25.0285 41.2299
5160 1 9.59891 26.9513 41.981
3819 1 9.61074 24.1789 45.2473
7558 1 9.98239 24.8465 41.0259
2368 1 10.403 26.0743 43.8632
59 1 11.7251 24.7371 45.9022
5595 1 12.6968 26.0623 44.1122
4308 1 14.6495 27.3091 40.734
7413 1 12.0664 24.9182 42.2212
4550 1 14.7372 26.0919 42.62
3884 1 12.4658 27.1327 41.7368
1388 1 16.5353 25.292 40.4517
5250 1 16.8432 27.212 42.7426
2221 1 18.9116 26.4499 43.3455
7957 1 19.5405 27.1001 41.3059
4535 1 17.6299 28.0113 40.5568
4370 1 18.6331 29.0157 43.0515
2547 1 23.1545 24.9481 42.2552
204 1 21.6352 23.4523 45.4962
7088 1 19.3673 23.2778 43.9362
2212 1 21.1646 24.5991 42.9189
6773 1 22.2901 27.038 41.2602
7822 1 23.0671 27.1582 43.9526
5818 1 27.1277 23.8029 40.6031
4795 1 26.635 25.6418 41.8886
4154 1 27.0093 27.9879 37.4737
3570 1 24.0789 28.5501 41.7186
3485 1 28.43 27.1348 43.286
6036 1 25.3688 26.9816 43.2216
2712 1 25.7581 27.8903 45.6117
3022 1 31.1802 25.7384 40.8844
1339 1 31.7377 24.1647 42.42
1575 1 28.9364 25.0211 41.395
194 1 27.0319 26.7213 39.5701
2034 1 32.3519 28.2937 44.2515
7246 1 28.9698 27.7408 40.898
7320 1 30.2391 24.5715 46.6565
949 1 30.5418 27.0566 42.6884
6616 1 -0.487247 23.0505 44.832
7832 1 33.1838 26.2692 42.6748
7079 1 31.8092 25.5831 44.9097
5514 1 35.6181 25.8392 42.4934
5182 1 34.5186 26.628 44.4734
6070 1 34.5278 28.4204 43.02
6282 1 3.14333 29.7919 41.3872
5036 1 0.711411 30.8034 41.4644
1637 1 1.45516 27.0561 42.4645
4446 1 2.01605 29.1228 43.9677
6071 1 2.54212 31.401 43.2821
4442 1 4.04292 27.6846 41.8866
3580 1 -0.0714647 30.866 44.0195
3405 1 6.63995 27.6268 42.7588
2944 1 4.84675 29.7312 42.7324
3260 1 5.33468 28.8647 40.329
7170 1 4.72655 31.5813 41.5261
6549 1 7.66508 32.4766 42.6569
2372 1 6.22373 31.4018 43.9751
160 1 8.34648 27.3996 44.6828
7739 1 7.25969 29.8064 41.9809
636 1 11.5376 30.0934 41.897
5267 1 9.314 31.3601 40.8763
7230 1 11.2513 28.1061 43.2893
597 1 9.32173 29.7684 43.0952
791 1 11.6982 32.022 40.3379
4951 1 13.0356 30.035 43.8096
6240 1 13.3131 29.4552 40.3676
2909 1 12.6841 32.4663 42.5806
2314 1 15.3477 30.4417 44.227
303 1 14.3516 28.6851 42.7227
3644 1 14.1074 31.1035 41.7597
3801 1 15.7238 29.5521 39.979
849 1 16.5486 30.3531 41.9373
1192 1 19.3981 29.7891 40.7799
3639 1 18.4936 31.8443 41.7718
5721 1 18.2073 31.0784 39.5775
144 1 20.3599 30.5135 43.6657
1082 1 21.3505 30.0854 39.3115
6143 1 21.398 29.0532 41.7168
2697 1 24.1285 31.0961 42.5533
1747 1 21.6584 31.6997 42.0452
4716 1 23.5083 29.3843 44.6825
3402 1 23.4039 30.4275 40.5559
4542 1 26.6875 27.9763 41.4628
4533 1 25.941 30.1623 41.1314
3357 1 28.0232 29.6294 44.3789
1415 1 25.827 29.7353 43.6594
4399 1 26.5015 31.6631 42.8413
5158 1 30.9924 31.1112 41.3185
527 1 27.4854 29.1839 39.6413
6528 1 28.6309 30.6165 41.0436
5725 1 29.6085 29.2398 42.5213
6149 1 30.3742 33.3675 42.3832
6767 1 30.2378 28.7631 45.289
5276 1 32.5427 29.4924 46.1664
438 1 32.966 30.1032 42.4506
4607 1 35.9606 28.4114 41.4067
2054 1 32.4125 27.9282 41.511
7158 1 -0.049574 27.707 44.256
5413 1 35.1197 30.7389 42.1467
308 1 2.54673 34.863 40.8243
7883 1 -0.0867795 35.1474 40.2381
6225 1 2.26448 34.6692 43.3589
62 1 1.16889 32.696 44.7298
7398 1 0.118937 35.2922 43.0333
2040 1 2.60132 32.4446 41.2029
2361 1 0.887132 33.157 42.4815
5115 1 4.37943 34.8641 45.0827
7563 1 7.53 35.2998 39.6255
5492 1 4.10864 33.2013 43.0228
4359 1 5.17065 35.3181 40.3298
1900 1 7.00687 32.8403 40.5499
2536 1 7.04811 35.6048 42.1128
3824 1 6.26699 34.1781 43.9584
6838 1 11.0886 34.7424 43.6826
6931 1 9.48308 -0.443735 42.2016
274 1 10.5677 32.1679 42.9984
5407 1 8.12755 -0.359502 44.3271
1032 1 9.30896 32.9277 39.1509
5800 1 8.76907 34.1044 43.6329
1429 1 8.95701 34.1054 41.2139
3900 1 11.4153 34.1522 41.4994
4227 1 14.0346 33.0017 40.4875
5082 1 13.6701 32.2309 44.8122
3968 1 15.8184 32.876 42.7178
6513 1 13.7769 34.437 42.7228
5745 1 19.5849 35.3901 40.6656
1504 1 19.6069 35.6985 43.6121
3649 1 17.4842 31.4511 44.2037
2939 1 15.8828 35.3357 43.2053
7971 1 16.0254 34.7221 40.7518
6940 1 17.9138 34.3909 42.8113
943 1 17.8539 33.5769 40.476
2675 1 20.33 33.973 41.8191
4704 1 19.49 32.7546 43.5793
6929 1 22.3249 32.4604 39.7426
4546 1 23.0249 33.7095 41.498
5565 1 24.3048 35.3146 40.4374
6602 1 24.5162 33.2384 43.4257
4058 1 22.6187 31.8839 44.0685
7026 1 21.6665 34.4481 43.7258
5644 1 26.8011 33.9523 39.824
1119 1 27.7069 -0.399972 41.4511
1887 1 25.128 32.6904 40.9043
4595 1 28.023 33.527 41.8778
689 1 25.9614 34.8415 41.8622
4302 1 26.335 33.6596 44.7683
1093 1 28.7325 34.1855 43.8967
5336 1 31.2694 34.9083 44.1226
3563 1 28.6445 35.1918 39.8723
6856 1 29.6671 32.5645 40.1494
873 1 32.6626 34.5388 41.5083
140 1 28.9649 31.7364 43.2536
6277 1 31.0421 35.3801 39.359
464 1 33.4563 32.3733 41.0319
1967 1 35.4751 32.9284 45.587
7095 1 32.6572 32.6953 43.2708
3583 1 35.283 32.8658 43.1692
7904 1 2.45144 2.58425 45.6821
2945 1 3.18863 0.220787 44.4213
717 1 1.56096 0.387759 46.6281
2928 1 3.41076 1.0629 47.2508
1989 1 0.662286 35.9726 48.0278
1829 1 1.62427 1.87819 48.9782
4380 1 5.22658 2.0158 45.82
3820 1 6.15242 1.82911 48.3021
7478 1 7.9596 -0.0472753 47.9332
6932 1 7.52304 3.65655 47.2856
4143 1 5.9707 0.0115559 45.9768
7728 1 8.0401 1.6648 46.1637
2060 1 11.0908 4.27058 43.205
3988 1 9.65186 2.67543 44.6268
5095 1 10.2975 0.385458 44.279
7105 1 9.90295 0.897149 46.603
5963 1 9.97992 35.5018 48.2958
5434 1 8.30925 2.24743 49.176
4703 1 12.0823 36.0635 47.0221
1640 1 9.86363 3.21083 47.3573
5840 1 12.1438 1.80238 45.9712
5084 1 13.8713 0.981312 47.4347
3331 1 11.5328 1.50288 48.5047
4214 1 14.1742 3.18901 46.1653
3524 1 13.7909 2.42818 49.2515
5671 1 12.3807 3.60057 47.5352
359 1 15.9617 1.44388 46.6032
4309 1 18.2273 -0.560542 45.4175
6632 1 20.75 0.282028 46.0848
545 1 18.8526 1.69989 45.4188
2293 1 17.114 -0.406846 47.8606
3838 1 17.804 1.69837 48.0838
5826 1 19.6314 -0.195735 48.1125
1280 1 20.1393 2.43662 47.295
2600 1 23.7304 2.96908 46.3006
3651 1 22.8963 0.837731 47.3946
6620 1 23.2729 35.5054 45.7989
1025 1 24.9969 0.0464357 45.6554
7020 1 26.6204 1.25578 46.5759
4390 1 24.5835 2.3296 48.2073
7756 1 26.9277 2.2417 48.6722
6148 1 25.4459 4.44959 45.5163
3640 1 26.3881 4.15358 47.6051
3991 1 25.8533 0.226893 48.4491
7675 1 31.7698 0.897892 44.4549
4443 1 28.1906 -0.451291 48.4925
1644 1 28.9161 0.851562 46.6953
1971 1 29.6098 35.6343 45.6945
7351 1 30.8211 2.35661 47.5398
7753 1 30.779 0.320399 48.3372
5317 1 36.1106 0.620848 46.3201
3654 1 33.7392 1.04876 45.919
5000 1 34.559 3.01952 46.6758
6389 1 32.6176 3.98452 47.8499
6771 1 35.3708 0.395185 44.1994
3436 1 33.0161 1.22381 47.9938
127 1 1.30575 4.60468 46.5585
2957 1 3.84996 3.84139 46.9193
2695 1 1.34703 6.29615 48.1878
84 1 0.423291 2.74777 47.3361
4516 1 5.41021 3.96615 48.8879
3813 1 7.07365 7.84652 47.9884
626 1 5.86215 4.59151 46.2245
6222 1 7.24661 5.7548 48.11
4371 1 3.47171 5.9807 45.5258
6061 1 6.27501 6.71815 45.3631
2680 1 4.16673 5.91705 48.1915
4776 1 8.58536 7.13069 45.8051
2847 1 9.83333 5.45219 47.0682
3162 1 8.46292 4.92094 45.3331
2277 1 12.3069 6.13536 47.9008
7742 1 11.585 6.98691 45.6712
226 1 11.1559 3.78755 45.5767
6752 1 15.1637 5.22105 47.2194
7354 1 13.0165 5.19153 45.4835
3253 1 17.1737 6.46167 48.6689
7436 1 13.8215 7.49069 46.8435
350 1 14.7701 7.38416 43.8418
2125 1 16.9568 3.80093 46.8603
7651 1 16.4395 7.29571 46.624
6935 1 18.6663 3.97113 48.1397
5191 1 17.892 5.61127 46.5155
1242 1 16.1003 3.79962 49.227
6448 1 20.6097 5.09506 46.915
599 1 22.4312 3.89038 47.9327
4456 1 20.7318 6.24927 49.1963
3348 1 19.1771 7.21967 47.4132
2397 1 21.9075 7.1855 46.6422
156 1 24.3038 7.88194 45.1811
5576 1 27.9668 5.21587 45.2004
5810 1 23.9749 7.87409 42.1938
5436 1 24.5858 5.9821 47.2717
3741 1 28.3758 7.32729 45.3168
5729 1 26.2868 6.88617 46.1806
6864 1 26.9343 6.40151 49.1868
6057 1 28.616 5.95697 47.5251
7807 1 28.4247 3.17763 47.3385
1675 1 27.6431 4.11774 49.8239
7803 1 29.7377 5.66288 43.9104
7577 1 29.396 6.76261 49.5531
2630 1 31.4271 6.13517 47.9445
2049 1 30.8521 6.80378 45.9135
7953 1 33.4677 7.51776 47.6145
1360 1 32.376 7.19533 44.0073
1795 1 0.274955 4.34705 49.1759
6847 1 34.9596 5.23181 47.4984
1331 1 30.2846 4.17235 45.642
7488 1 32.8933 5.57779 45.9993
2478 1 33.0011 5.68551 49.7148
6596 1 35.3657 6.75103 49.2866
4213 1 2.96073 8.32408 45.8176
4868 1 0.685894 8.48902 50.0345
1182 1 0.970523 9.63567 47.4512
3495 1 2.76525 8.09195 48.1862
1245 1 -0.330748 7.41057 47.3236
1807 1 7.13263 11.0471 43.9186
4038 1 5.175 7.89842 46.74
2685 1 5.02101 11.702 45.1554
1240 1 4.67942 10.1207 46.9727
6274 1 7.4443 9.69544 46.4953
3509 1 2.75559 10.319 48.6827
2519 1 10.9868 11.3632 45.0726
634 1 11.0848 10.343 47.1472
3431 1 10.3626 7.9656 47.2857
2065 1 9.45681 9.34243 48.8518
5248 1 9.59488 9.02594 45.1092
5601 1 8.94435 11.6582 46.1208
6693 1 8.50078 11.5713 48.3682
4049 1 12.0242 8.78344 44.534
7332 1 14.1604 9.32074 45.1473
2929 1 15.337 9.2225 47.6418
4678 1 13.2923 10.0195 47.5936
293 1 19.3044 11.2886 45.9084
4131 1 16.9873 10.5012 46.4379
7250 1 17.4353 9.01303 48.3046
3723 1 18.3753 8.60775 45.8249
5243 1 22.3762 7.36587 43.9763
7119 1 24.2136 10.6071 44.4376
6295 1 22.8474 9.26703 45.8013
5913 1 20.0983 9.65258 47.8801
4454 1 20.6689 9.9713 50.4189
5470 1 21.5024 11.8295 46.5716
2294 1 24.646 10.6019 47.6006
6440 1 26.0088 9.32901 45.926
6230 1 28.1655 10.7742 46.8368
1972 1 26.2778 11.6606 45.5925
5994 1 26.7396 11.2492 48.995
2316 1 24.0443 8.19852 47.7109
370 1 26.3526 8.51027 48.173
7349 1 28.4706 8.42599 47.5597
7553 1 30.7536 8.42898 48.4746
681 1 32.2196 9.18137 46.7872
2055 1 30.688 10.7625 48.0393
5983 1 28.7019 10.0611 49.3869
5640 1 34.0915 8.09215 45.2854
2137 1 33.3721 8.45627 49.7958
6364 1 33.335 11.1743 46.027
2619 1 35.1278 9.6272 47.5608
1598 1 -0.19454 10.9565 45.7165
49 1 33.3126 11.1538 48.7474
3912 1 2.81393 14.6774 43.1973
64 1 0.961765 11.9514 47.5188
159 1 2.56554 10.7573 45.363
5516 1 1.86064 14.0935 47.3426
3025 1 1.97778 12.995 45.1357
7156 1 -0.592018 14.1969 47.8687
5239 1 7.13667 13.3079 44.8594
5886 1 6.54541 11.7488 46.8257
134 1 4.22604 14.2179 45.2797
2560 1 3.24469 12.3208 46.9618
5889 1 5.58925 13.9063 46.9288
2116 1 9.32663 13.0906 43.7073
2788 1 10.1676 13.9777 45.8867
4147 1 8.33457 13.9931 47.2284
595 1 12.2603 16.9512 49.0056
7165 1 12.9369 12.7575 45.8151
7011 1 13.2509 14.6946 47.7863
6124 1 15.6623 16.1418 47.2878
4785 1 15.1167 13.3466 45.3412
4691 1 14.6276 11.5504 46.8974
3962 1 15.8461 13.7179 47.9287
7816 1 13.5944 12.5933 48.5673
6518 1 13.7954 15.062 44.9616
6390 1 18.7356 11.2897 48.3358
3557 1 17.2173 12.555 44.3348
3319 1 20.0521 13.4268 47.1669
1432 1 16.415 11.2867 48.8337
6768 1 19.2243 13.7784 49.3728
7831 1 17.7635 13.2496 46.4547
6284 1 18.2373 15.3429 47.7426
1633 1 21.9443 11.26 44.0544
557 1 21.5694 16.1861 44.688
5821 1 21.8897 13.489 45.0403
6205 1 23.7907 12.5795 45.8972
5201 1 20.9598 12.1276 48.9528
2705 1 23.6722 15.8233 46.2178
538 1 22.6649 13.9353 47.452
6458 1 23.8819 12.219 49.4036
7580 1 27.3291 13.1999 47.0604
239 1 25.176 13.2719 47.6983
4557 1 28.6331 14.8184 46.2122
4457 1 26.0168 15.54 46.8021
7754 1 29.1468 12.8647 48.7931
4033 1 26.804 14.7935 49.1285
1805 1 30.3097 14.0649 44.5682
5028 1 30.4728 16.8426 44.6342
5753 1 30.0999 12.9996 46.5512
6227 1 29.1982 11.952 44.6818
436 1 31.8371 12.578 50.0102
1574 1 33.1158 14.5258 49.7381
6519 1 31.1604 11.0066 45.6834
5903 1 29.3762 15.5247 48.307
7655 1 32.2927 13.1534 47.8577
1230 1 35.2694 12.7431 45.7467
7890 1 32.7049 13.5378 45.7484
6708 1 33.972 14.7557 47.4762
2844 1 35.4475 11.8562 48.1236
1274 1 35.9765 15.6985 50.0433
67 1 0.328513 17.9496 45.114
1008 1 1.55903 16.5184 47.3361
7635 1 0.228046 14.6456 45.6936
1963 1 1.25692 18.9058 46.9722
4127 1 3.39556 18.0835 46.1451
6876 1 2.07233 16.4509 45.0993
783 1 35.9617 16.4648 47.257
6692 1 5.40807 18.6312 47.0733
6924 1 5.45064 18.8289 44.7403
2864 1 5.33558 16.3495 46.611
3070 1 7.7834 15.9194 45.5713
876 1 7.66426 18.2486 46.2271
711 1 2.89687 18.2678 48.9173
2118 1 7.25149 16.7068 47.9584
5354 1 6.85296 18.9738 48.6368
444 1 11.1409 20.2156 45.1951
450 1 11.9634 15.6221 46.2793
5163 1 9.63639 17.8659 44.511
6445 1 9.21209 19.6142 47.9611
5642 1 9.4836 16.1875 46.9981
6918 1 11.0202 17.949 46.7692
1893 1 11.3512 19.0937 49.6611
1951 1 12.3216 17.4269 44.7941
1743 1 15.0884 17.54 45.2332
3182 1 13.6205 19.0971 44.2927
1903 1 14.5535 16.1418 49.3757
7008 1 13.5185 17.3807 47.0264
758 1 15.6054 19.858 46.2959
1019 1 17.1156 22.6832 44.2757
4212 1 19.1084 16.271 45.065
4377 1 17.2467 18.0022 45.898
2445 1 15.9539 18.1536 47.9584
2353 1 17.6153 19.652 47.5534
5583 1 19.1286 17.8118 47.6448
3904 1 17.8335 17.2129 49.4176
4484 1 23.5179 17.4449 44.6477
2032 1 24.888 19.3802 43.8828
5156 1 20.6985 15.872 47.5649
7100 1 22.4923 16.5195 49.4258
6852 1 21.7108 17.9588 47.1259
1970 1 21.9756 19.2181 49.1082
2927 1 23.1718 20.2853 45.4765
4362 1 23.427 20.5028 48.0622
5569 1 25.7452 17.4737 45.3014
5737 1 24.0386 18.3655 47.0128
3811 1 28.0411 17.1636 46.5688
7719 1 26.2458 17.0219 48.827
4863 1 26.7415 18.7469 46.8832
1892 1 31.3833 15.118 47.1106
3342 1 28.9363 18.5964 42.834
7917 1 29.29 19.0596 45.4394
6312 1 32.3591 16.9711 49.5527
514 1 28.8313 17.8761 48.7537
3188 1 30.7513 20.0684 48.0126
3631 1 32.622 15.8646 45.1767
7021 1 32.4936 18.2389 45.2858
1017 1 31.0426 17.4556 47.6277
5270 1 34.9767 18.3769 45.9395
1981 1 33.3461 16.8787 47.0511
3481 1 34.7153 17.6421 49.2539
5161 1 1.40635 21.6866 45.3445
6300 1 3.14109 20.3589 46.8758
2056 1 3.82583 25.0664 45.7626
1255 1 3.11073 21.3511 48.7037
6235 1 0.804646 21.8078 48.0161
1753 1 35.7373 22.1029 47.174
1580 1 35.7668 19.6466 48.0061
4391 1 4.02059 23.8778 48.1459
6223 1 7.25467 22.7376 44.0462
4368 1 3.60595 22.5583 46.038
132 1 5.37672 21.514 47.6265
1744 1 7.32581 21.1814 49.5497
5830 1 5.31417 21.0202 45.5039
1649 1 7.60232 22.7664 47.5605
1238 1 7.31656 20.3022 46.8486
6468 1 7.65848 19.8731 44.421
6544 1 11.6748 20.8988 47.7019
6523 1 9.07787 21.3483 46.1298
6354 1 11.3659 22.4159 46.2688
4444 1 8.88799 19.3498 50.3402
6875 1 9.62872 21.9779 48.9345
302 1 15.1007 23.2023 45.7024
2157 1 13.5513 21.6771 48.0906
7395 1 13.3274 19.6453 46.6788
2671 1 15.7843 21.7759 47.6123
150 1 16.0734 20.2578 49.3899
4118 1 15.1274 24.0413 48.2457
6842 1 17.2758 23.7021 46.9644
5081 1 17.9576 21.8187 48.6197
1110 1 20.2879 22.3447 49.021
3655 1 18.3123 21.5102 46.3737
6944 1 19.5061 19.3682 45.7088
6400 1 20.9615 21.6864 44.1501
2151 1 23.9458 22.419 46.3804
3243 1 21.5232 21.0682 46.5894
2075 1 24.0948 23.4502 49.4896
4129 1 22.3994 23.0104 47.9166
7889 1 25.573 20.3395 45.9728
4679 1 25.4825 21.6248 48.1123
4690 1 27.1524 21.8408 45.6304
3259 1 25.819 23.8526 45.0238
2787 1 27.8438 24.4018 46.0414
7497 1 26.0941 19.581 49.0657
6614 1 29.3079 21.6154 44.0005
5733 1 31.76 22.2919 47.0885
7876 1 29.6463 24.9322 43.67
1073 1 28.3365 20.3204 47.8336
796 1 29.5887 22.1561 46.332
469 1 31.5579 23.127 44.5839
2206 1 30.3652 23.5482 50.8831
5418 1 31.6415 23.7159 48.7302
5978 1 31.8568 20.9239 45.0851
1586 1 36.1278 20.2619 45.6679
1671 1 33.8339 22.842 45.8034
7425 1 33.7443 20.6641 46.6039
2604 1 32.5855 24.6131 46.8192
1325 1 33.921 23.1136 48.1204
4400 1 1.99542 26.4152 44.6395
1031 1 4.95666 26.7552 46.9566
3343 1 2.0467 25.7506 47.4214
4065 1 1.01404 23.7299 46.4224
428 1 5.72826 23.6062 46.542
3958 1 7.35754 27.4956 46.9663
4223 1 5.97197 23.1424 49.6546
2765 1 5.96114 26.3449 44.8026
2921 1 6.73165 25.2173 48.0059
779 1 9.84267 26.4862 46.9217
3486 1 9.9688 23.874 47.4484
4202 1 7.68546 25.398 45.9104
5347 1 8.43202 26.2924 49.1548
1077 1 11.4972 22.9605 49.4637
1500 1 11.7335 25.0749 47.8557
446 1 13.1203 23.6334 47.1533
6763 1 14.552 25.3358 46.2598
2437 1 14.0985 26.2178 48.4554
3752 1 12.129 27.3769 46.4937
3004 1 16.6155 26.7932 45.5662
1497 1 16.451 26.3676 47.903
4711 1 20.6293 25.833 44.7234
6850 1 19.0605 24.1097 51.5529
4480 1 19.518 23.6686 46.9123
3019 1 17.1485 24.3346 49.3555
4041 1 19.3468 26.0816 46.7531
1882 1 19.6687 24.9295 48.8156
6859 1 18.9419 27.8692 45.2828
7194 1 20.7359 28.2279 43.6847
4142 1 23.4518 25.3112 44.9731
2382 1 21.8672 25.5829 47.1747
870 1 24.0572 25.0549 47.4276
3595 1 22.5644 26.1094 49.1987
2237 1 23.641 27.4762 46.519
2756 1 21.374 27.9791 45.9469
3168 1 24.6922 27.279 49.5019
637 1 25.7556 25.8689 46.3722
5654 1 26.1666 23.7106 47.7459
5263 1 29.7871 26.5796 45.3569
5429 1 27.9052 27.6299 46.0248
6314 1 26.8877 26.9759 48.2852
5493 1 29.4658 22.6113 48.4831
7650 1 31.5566 27.4093 46.9788
1729 1 29.3868 26.6918 47.8286
950 1 31.4126 25.9026 48.8029
6927 1 29.9582 27.9082 49.6675
6206 1 0.236242 26.3997 46.4767
5895 1 34.2441 27.0698 46.8464
6361 1 35.2156 24.5092 46.1732
4075 1 33.5719 25.9476 48.6878
157 1 35.8262 26.788 48.7195
4282 1 -0.449384 24.2413 48.3823
614 1 1.32967 27.9981 48.5396
6221 1 0.697529 28.8749 46.3672
5636 1 3.41863 28.8483 46.9665
4469 1 2.11425 30.761 45.9945
5325 1 1.81875 30.4499 48.3202
5153 1 -0.444459 31.6968 49.0098
4605 1 6.57474 29.1137 44.9385
4874 1 5.97173 29.2947 47.3627
5712 1 4.11682 29.9664 44.9109
5648 1 4.1813 30.9235 47.3723
5021 1 8.11908 30.1906 46.3341
5328 1 6.36984 27.8742 49.469
3397 1 13.0088 29.4437 46.0999
3423 1 9.84965 28.6568 45.6693
4298 1 8.78093 31.6716 44.8058
2531 1 9.35017 28.7397 48.2124
1571 1 8.35455 31.2714 48.2158
2777 1 10.2966 31.2085 46.9607
4695 1 6.66783 30.342 49.612
3236 1 11.1252 30.217 44.6781
3665 1 14.5151 27.5786 44.6678
4392 1 15.0799 28.4655 47.0493
5244 1 14.9038 30.8647 47.687
389 1 15.9461 31.9373 45.9597
4218 1 17.8206 28.4342 47.408
5742 1 18.5 28.3533 49.5389
1906 1 16.6175 28.6838 44.7966
4545 1 17.7222 30.4436 46.3481
3092 1 18.9315 32.4609 46.7506
7834 1 16.4239 30.2799 49.8214
1038 1 18.9114 30.907 48.7405
5643 1 20.3207 27.273 48.4557
4699 1 22.425 28.4862 48.5734
3026 1 20.0017 29.2207 47.1794
5428 1 20.763 31.3888 45.8585
3996 1 22.7182 30.8421 46.8578
7339 1 23.0381 30.3251 49.9249
3086 1 24.7273 31.371 48.4724
6066 1 24.6824 29.1202 47.3858
80 1 25.9687 29.4019 49.182
624 1 27.2917 30.2353 46.5193
5905 1 26.6845 32.3776 47.3532
7820 1 29.87 30.9532 46.0515
6754 1 24.9153 31.4278 45.4936
6687 1 31.1835 30.6185 43.7713
7238 1 32.5408 27.4397 51.0191
6146 1 30.6537 29.6863 47.9911
1979 1 28.3792 29.2276 48.3817
5801 1 34.1984 30.8901 44.3767
5089 1 31.6661 29.3199 50.3866
1168 1 35.1268 29.0945 45.3882
6874 1 33.0128 28.5375 48.4342
6215 1 34.1921 30.9505 46.8349
124 1 35.2619 28.7875 47.829
3744 1 -0.0271666 29.3629 49.8134
3322 1 33.1769 30.8686 49.0221
4938 1 0.0875101 31.1997 46.72
1653 1 0.160477 35.2483 45.6385
6615 1 2.95682 35.3663 46.8588
4955 1 4.33354 34.6025 49.348
6625 1 2.45647 32.7792 47.0556
2291 1 0.298862 33.4748 47.2449
2709 1 2.03311 34.3002 48.781
7426 1 6.30009 32.6791 45.8196
787 1 4.04175 32.3385 45.3231
6130 1 7.33776 34.9419 46.0581
2528 1 4.94195 34.1599 47.2805
3010 1 5.96971 32.0674 48.3742
298 1 7.33235 34.0528 48.6774
5996 1 5.77197 -0.422225 48.311
7240 1 10.9375 32.77 45.2914
5440 1 9.00866 33.2456 47.0251
4999 1 11.4978 33.7782 47.5991
5016 1 10.057 35.0694 45.7098
4066 1 10.3933 32.9021 49.3668
4778 1 15.0649 33.9168 44.6309
5646 1 14.9581 -0.455493 49.2532
3393 1 12.7448 31.6887 46.7029
6607 1 12.7377 34.1669 45.216
237 1 13.8376 34.7793 47.3451
3576 1 16.0626 34.315 47.0858
3725 1 14.7007 32.5664 49.6072
5083 1 16.8588 32.5216 48.0598
6997 1 18.4687 34.6061 47.3015
7808 1 20.0822 34.4321 45.699
2595 1 17.5597 33.5889 45.1496
6678 1 20.5171 33.358 48.8584
6848 1 23.7972 35.5063 48.1187
2841 1 22.2082 33.1883 45.9079
7402 1 23.0815 32.9909 48.3042
455 1 21.6662 35.1499 47.1997
530 1 21.3854 31.2099 48.6211
840 1 24.3123 35.4323 43.7367
1227 1 24.4269 33.7712 46.3489
956 1 26.6758 35.3612 46.4825
5669 1 27.9492 32.1738 45.2782
3247 1 28.6187 34.1014 46.4435
2124 1 25.7319 34.0511 48.4949
6042 1 31.4412 32.0727 47.474
1991 1 28.886 31.7985 48.0273
6122 1 30.7683 32.8345 45.2767
7249 1 30.6637 34.3766 47.5002
295 1 33.103 33.6534 46.0166
5828 1 31.9535 35.8584 46.2856
4923 1 33.9685 35.0093 44.0121
2546 1 34.6348 35.7542 46.8846
1264 1 32.6002 35.3428 48.5765
1273 1 34.6893 35.5136 49.4274
4208 1 34.1342 33.2558 48.1575
55 1 3.83932 1.97486 49.4802
2954 1 2.82434 -0.143867 49.3192
5038 1 1.58367 1.99329 52.185
5159 1 6.75119 0.196461 50.3562
601 1 5.53829 1.07795 53.4601
6597 1 6.96383 3.26905 52.3384
7174 1 3.84263 1.44248 51.6095
2379 1 4.78474 35.9466 51.5122
5667 1 8.28046 1.20069 52.3866
468 1 10.0014 0.485048 50.2799
640 1 11.2563 1.0602 52.2512
4921 1 10.3432 2.68113 53.7179
3006 1 14.2243 1.07153 51.417
6064 1 12.1576 2.47328 50.932
618 1 14.6706 34.8382 51.4564
3724 1 15.2019 2.18053 53.6354
3885 1 15.3445 32.0915 53.9483
392 1 5.53579 34.9447 53.4815
6937 1 17.305 2.4206 52.4998
4295 1 16.3422 1.41529 49.8428
6313 1 15.5955 32.1072 51.71
542 1 18.5516 0.666682 50.115
6198 1 16.3331 0.321412 52.1324
3974 1 20.6182 3.60333 49.4606
630 1 23.6128 -0.0753436 50.06
7727 1 21.0541 0.872016 49.4452
1352 1 22.8904 2.70302 50.1181
4953 1 20.0662 2.54267 51.4132
1746 1 21.7055 0.958274 52.031
6043 1 22.3727 2.98819 52.8783
1313 1 3.58071 16.4285 36.1475
3037 1 25.9177 35.8135 50.284
6798 1 27.2646 -0.42581 53.5139
66 1 25.1643 2.20419 50.4231
6640 1 25.6788 0.589626 52.1996
4200 1 27.4481 0.983268 50.6646
3746 1 7.14581 29.4784 53.719
2759 1 29.4473 2.10855 49.4429
5111 1 29.6491 0.189172 50.4617
390 1 28.8385 1.00463 52.7326
6454 1 28.9411 3.13918 51.4459
8000 1 31.1058 2.11121 51.9795
7090 1 31.9556 2.58612 49.9631
1344 1 3.16666 35.133 53.108
5247 1 0.0519255 -0.427689 50.1192
1186 1 -0.389822 2.36389 50.7668
6542 1 -0.192223 0.635632 52.4307
6849 1 32.5175 34.8018 51.2406
3187 1 32.2003 0.180432 50.357
4305 1 34.5196 0.795109 50.8334
5110 1 35.8332 1.12033 48.5568
7749 1 34.1887 2.38309 52.3566
4363 1 0.199163 6.15734 51.0599
1174 1 2.5326 6.56253 50.1589
3648 1 2.54172 4.21264 48.9456
1030 1 0.14083 5.28627 53.2393
289 1 3.94914 4.14445 50.7678
2381 1 1.57623 4.14848 51.2155
2772 1 3.79844 6.18996 52.1115
6960 1 7.12759 4.34209 50.4609
2209 1 16.701 1.43661 37.7773
4799 1 5.55895 6.2967 50.2303
7886 1 5.70801 2.4265 50.6065
4064 1 6.02404 5.27765 52.6022
2376 1 5.4631 7.86048 52.047
2455 1 7.41781 8.36156 50.563
6995 1 0.095082 2.37066 36.004
7645 1 9.13665 6.79847 48.9125
1552 1 9.51189 2.82463 51.1875
615 1 10.1513 4.34327 49.0296
7887 1 8.54379 6.30738 50.9904
6393 1 7.4188 7.77452 52.9368
707 1 11.1962 4.45818 51.7948
7737 1 19.8948 6.08057 52.7167
459 1 17.3876 35.0965 51.7438
2138 1 16.1011 5.48547 50.7323
4539 1 13.5247 4.70815 49.7867
7988 1 14.4745 6.69214 49.1527
213 1 13.8063 6.27075 51.4506
7200 1 15.1847 3.45357 51.3212
1345 1 15.7747 5.11711 53.2055
3098 1 18.0735 3.54977 50.4168
1732 1 18.5816 5.89385 50.4544
58 1 18.121 4.54644 52.704
7483 1 20.1584 33.9568 53.7743
532 1 22.8295 6.23603 49.2652
6477 1 21.7499 4.90996 51.387
4060 1 23.2562 7.23084 51.8966
3015 1 24.3531 3.92575 51.8309
3428 1 20.9609 7.50785 51.0715
5199 1 24.4932 4.78749 49.5991
7669 1 26.6904 3.0135 51.8055
5955 1 25.3882 6.12853 51.7852
1322 1 25.2859 8.65959 51.8122
4875 1 27.5838 7.03703 52.5129
3585 1 24.7432 7.5271 49.8981
472 1 30.1847 4.40789 49.7268
3336 1 28.7701 5.59291 51.5433
7280 1 31.4732 7.09278 50.7742
683 1 32.6615 4.01232 51.6742
5094 1 30.6418 4.61252 52.7004
2443 1 30.8173 7.47715 53.054
3327 1 34.5922 3.06206 48.9967
4856 1 24.0375 35.7464 52.3996
1481 1 32.7702 6.34158 52.6915
3174 1 15.6647 23.8376 53.7647
5756 1 35.1457 4.56332 50.8762
6309 1 10.6328 9.62278 53.0489
6703 1 3.06768 9.29995 53.2862
5417 1 1.56099 7.47722 52.2353
3562 1 3.26599 8.73274 51.0914
7826 1 23.9465 34.0451 50.4163
4210 1 0.34252 10.7489 49.5538
7891 1 -0.56512 8.54418 51.8195
3506 1 1.07634 10.2277 51.9201
6799 1 5.28534 11.6903 48.5299
6770 1 5.06878 10.2418 51.1816
613 1 6.64098 9.83781 49.0878
1641 1 5.08346 8.11061 49.4159
1272 1 8.23364 10.0327 52.6833
6928 1 7.16346 11.7063 50.3984
7257 1 7.36493 12.111 53.7461
3112 1 9.89271 8.49396 51.2571
4860 1 11.5563 10.3561 49.5178
6796 1 11.4256 6.2335 50.2673
6077 1 9.45944 10.6661 50.7254
5019 1 11.9441 11.718 53.8177
6228 1 10.0321 12.4105 52.3267
7591 1 15.3395 7.67949 53.5604
2366 1 12.3896 8.25932 49.0145
1109 1 14.5275 8.99957 50.0826
2367 1 12.6144 8.2505 51.6499
7193 1 15.2776 9.58931 52.2846
3597 1 13.0797 10.7802 51.6903
5505 1 15.4318 11.924 51.0921
3971 1 16.5119 7.92982 50.6064
5012 1 16.8869 11.2365 52.9324
4617 1 17.211 6.85756 52.5393
2866 1 18.7899 8.28892 52.1819
3839 1 19.1011 10.8354 52.3351
7913 1 17.1232 10.0421 50.841
1904 1 2.30957 4.41629 53.8641
3254 1 4.21346 26.1256 52.5765
317 1 21.8814 34.3835 52.1555
7030 1 15.0795 14.7297 53.4838
7566 1 21.8361 8.20345 48.7409
7345 1 21.4894 11.6855 53.1217
3110 1 19.1303 8.10091 49.7306
3252 1 22.517 10.4263 48.497
5331 1 20.9606 9.01883 52.8735
1502 1 -0.196392 2.75487 53.2847
2386 1 23.2177 9.34139 53.0309
7815 1 22.6935 9.32763 50.6697
720 1 26.4311 10.4389 53.5639
3012 1 27.2287 8.18204 50.2811
7802 1 24.1893 10.9114 51.7758
7031 1 24.7248 9.88345 49.764
1988 1 29.4678 8.76748 51.451
3101 1 31.8256 10.1818 50.3827
1749 1 31.1937 9.69477 53.1334
6292 1 29.0885 10.8628 52.7283
280 1 29.7095 11.7413 50.544
781 1 33.3144 8.90654 52.3047
6459 1 33.8421 11.2815 51.1412
3573 1 34.3037 7.0088 51.4823
4274 1 22.361 11.0076 36.9443
2307 1 35.2931 9.64034 50.2612
3102 1 18.9116 34.9986 49.5012
7432 1 3.20324 12.9659 49.2832
6873 1 2.84376 11.6079 51.2765
4933 1 4.33387 15.2224 52.216
2778 1 0.582858 13.2206 49.4838
379 1 2.66561 13.6881 53.3262
373 1 2.28385 14.237 51.1242
3000 1 0.726348 12.7789 51.8843
2678 1 8.61263 5.21078 53.157
5884 1 4.78346 13.0373 51.3487
375 1 6.48786 13.4951 49.4003
5645 1 6.69168 14.3823 51.6806
4440 1 4.28998 15.1805 48.2578
3809 1 4.0016 11.5351 53.1207
5893 1 11.8054 35.8491 49.6453
5984 1 10.7152 14.9496 48.8027
7968 1 9.2709 13.2668 50.2883
7760 1 11.9438 12.9537 50.2479
5116 1 9.84267 15.76 50.7523
3675 1 11.1488 14.5228 53.0171
773 1 8.31451 15.0059 49.3747
3913 1 13.314 13.5801 52.6636
4612 1 10.9969 12.4521 48.0577
4513 1 12.2965 15.066 50.5303
2398 1 13.2133 15.9682 52.6414
6951 1 14.8549 13.9655 50.138
5421 1 19.165 14.7614 52.8269
2000 1 17.9601 12.2261 50.7039
632 1 17.6153 16.5776 51.8974
2617 1 20.369 12.7953 51.2123
7671 1 16.6499 13.9483 52.3931
5314 1 17.0868 14.7541 49.9708
2532 1 22.7362 13.8641 50.3744
622 1 22.2642 11.9123 50.8949
305 1 22.5221 15.4069 52.124
1002 1 21.0284 13.9574 53.8579
4158 1 25.7454 12.4278 52.4925
1986 1 23.485 13.3421 52.9814
5584 1 27.254 10.3565 51.4555
1816 1 27.6011 13.0498 51.1192
7097 1 25.0663 13.8504 50.7771
5878 1 27.7645 15.1484 53.1799
3759 1 24.2504 15.5538 48.7498
1475 1 30.8738 14.9596 49.7975
1408 1 31.3503 12.3521 52.6087
4633 1 29.5804 14.1235 51.8823
7504 1 32.4838 13.99 51.9506
1577 1 35.2907 13.5619 50.9396
5589 1 35.774 11.1023 52.6284
6953 1 33.7554 12.9336 53.4944
5265 1 5.24829 28.2332 53.7054
5961 1 28.0871 12.9092 53.639
3593 1 34.8188 15.2456 52.3948
6947 1 1.91341 15.3459 49.2461
5743 1 33.3323 0.341031 52.7778
554 1 11.53 23.0162 53.2263
938 1 0.700055 17.6518 49.1902
5099 1 2.58248 16.863 50.8331
1341 1 1.07586 18.1426 51.8097
1980 1 4.59876 18.0966 51.8142
3103 1 5.03908 17.4097 49.7523
4315 1 7.56565 17.2759 49.9897
5353 1 4.3085 3.28474 53.1884
1483 1 10.8794 16.9377 52.566
3275 1 6.29298 16.6157 52.1415
5269 1 9.84161 17.4456 48.9088
6377 1 8.55976 16.5037 52.2869
1656 1 10.6365 19.1845 52.0012
5663 1 8.30844 18.587 52.6547
3330 1 13.645 18.6153 49.1214
4068 1 15.359 16.1568 51.2961
5975 1 23.644 1.3881 53.7396
5894 1 12.6747 17.905 51.3434
4772 1 6.62721 32.5201 52.5931
4544 1 15.5403 17.4561 53.1636
921 1 20.0467 19.871 48.2164
3016 1 18.4304 19.2058 50.0924
7986 1 20.835 19.821 50.7711
4046 1 17.2938 19.1842 52.9661
1185 1 16.2844 18.2655 50.7503
371 1 20.415 15.5404 50.9138
7103 1 19.6266 17.6209 52.2569
6934 1 20.2655 17.454 49.6632
3579 1 22.2268 17.9795 51.4153
3414 1 0.531362 26.194 52.7583
1163 1 22.7515 20.6078 52.4067
1102 1 26.3638 33.5724 51.0119
4460 1 25.8093 17.1681 53.1014
3085 1 24.1082 18.3017 49.279
1243 1 24.3606 16.4928 51.0834
369 1 24.5837 18.9014 51.7253
794 1 27.2328 15.835 51.1769
839 1 27.5233 18.233 50.9069
3963 1 13.891 34.1078 53.2617
3754 1 30.4225 17.7803 52.4564
7274 1 28.3049 17.4208 52.931
3021 1 29.6948 19.8076 52.4691
6522 1 33.1072 16.7465 51.6172
4685 1 29.4304 16.2601 50.5604
1879 1 30.9069 18.856 50.1811
5105 1 13.3968 34.3254 49.3112
4915 1 0.63533 15.735 51.7367
5797 1 33.4492 21.4816 53.5237
7253 1 35.4753 17.4861 51.4917
292 1 32.8856 19.0587 47.8094
6943 1 35.2751 19.0066 53.3272
3416 1 -0.564728 16.6454 53.6366
1909 1 25.1536 14.8985 52.8254
7752 1 10.3217 6.47645 52.5746
7435 1 1.26415 21.7223 51.0019
4209 1 36.0234 19.7605 50.645
2689 1 2.89581 19.3824 50.8864
598 1 3.73788 22.1809 50.8621
931 1 6.70249 19.5423 51.1127
7093 1 4.5715 20.2268 52.4312
6288 1 26.2099 28.7038 53.6417
2446 1 4.66373 19.7419 49.3863
1582 1 6.31019 21.9663 51.4826
7837 1 2.08887 32.8026 52.7777
3490 1 8.11049 9.42978 36.4651
548 1 8.74962 21.5638 52.1246
4765 1 13.5988 4.16575 52.9188
3341 1 10.6883 20.9359 53.3701
7085 1 10.8029 21.286 50.9887
1181 1 10.0806 23.6022 51.328
7634 1 9.13333 23.3359 53.7771
617 1 15.1661 22.5983 50.0091
6681 1 12.811 22.6858 51.4817
1511 1 13.0706 20.6569 50.2349
57 1 14.6109 19.3673 51.9539
7036 1 12.7932 20.6875 52.5107
6231 1 15.0562 21.8396 52.6338
7819 1 16.8997 20.9155 51.3399
5088 1 19.2901 21.6194 51.1472
2059 1 21.1429 23.5243 52.5413
4937 1 16.5194 23.4788 51.4801
7970 1 20.4109 20.9825 53.172
5183 1 16.2342 35.1512 53.5944
1992 1 23.3523 23.3186 51.7813
1740 1 22.1099 21.755 50.0988
2384 1 16.3447 34.314 49.5266
2436 1 24.078 20.9134 50.2853
2948 1 27.3769 22.4438 49.4263
7005 1 24.8251 21.3904 52.6127
4536 1 26.8206 20.6254 50.9967
1576 1 26.0452 23.2108 51.7894
5352 1 3.93344 22.0815 36.0042
4920 1 10.7807 31.6673 53.8328
7341 1 29.0619 20.1598 50.1808
7991 1 32.2756 19.173 52.6151
2480 1 31.2508 21.3558 52.1885
7801 1 31.5083 21.5199 49.7377
6526 1 32.1488 23.4537 53.3998
151 1 26.2027 34.3102 52.8972
3407 1 33.3526 19.1036 50.3108
1668 1 34.0129 20.9952 49.1036
1262 1 1.25836 19.976 49.3063
7331 1 0.433447 20.2424 52.5273
1914 1 34.3131 20.3734 51.8055
5504 1 35.5164 22.4263 52.5913
5018 1 33.7495 22.5172 50.9717
1188 1 1.83485 23.5216 49.5961
72 1 3.19788 25.326 50.5238
3647 1 35.8734 22.4812 49.8015
2950 1 0.0282686 23.8381 51.2685
206 1 1.02634 25.921 50.4358
7251 1 22.0674 32.3916 50.8163
1105 1 2.1049 23.7619 52.4849
6606 1 34.5413 4.64026 53.3372
3013 1 6.64115 26.5327 53.4321
5176 1 8.37318 23.5941 50.0262
2955 1 5.12574 25.901 49.2223
2213 1 6.49285 25.9151 51.0894
2144 1 5.10359 23.9958 52.0877
2467 1 4.8549 27.9416 51.4056
7664 1 7.51397 24.2964 52.5061
5660 1 10.3074 24.8678 49.6148
3984 1 10.8476 25.2184 53.894
6634 1 11.2371 27.3845 52.2158
7733 1 11.9148 25.0681 51.5035
5424 1 9.26569 25.7121 51.9238
6925 1 13.2715 24.2341 49.6062
1486 1 14.2259 24.3993 52.0644
7653 1 13.3696 26.3236 53.0923
2681 1 13.7015 28.4821 52.6976
1572 1 15.4447 25.2425 50.2328
7646 1 15.3684 26.8912 52.1899
4056 1 13.228 26.8653 50.5591
5264 1 17.8039 26.2338 50.5584
3564 1 20.2663 26.568 50.6398
1737 1 19.779 25.9783 52.8599
4760 1 18.0384 22.6834 53.3012
6622 1 17.1964 25.3386 52.6843
5008 1 20.0303 28.2149 52.3171
286 1 21.7899 35.0369 49.6862
215 1 21.6139 24.2 49.946
2155 1 22.1947 25.5068 51.7209
1090 1 22.4525 27.7766 51.1062
1510 1 24.3576 27.4205 53.2516
3346 1 22.1604 26.9975 53.4006
5422 1 24.5896 25.2526 50.9876
1993 1 28.6697 22.2007 51.8517
1596 1 26.8699 25.0842 49.4685
5917 1 27.8538 27.6823 50.446
1808 1 26.3421 26.4733 52.0755
7336 1 29.4086 24.9081 49.2056
2782 1 30.017 26.0656 51.103
4307 1 27.8927 24.8244 51.764
5192 1 28.6033 27.01 53.0036
7121 1 32.164 24.8246 50.8514
3163 1 30.0353 24.5307 53.0732
1328 1 3.90112 22.0878 53.4827
6530 1 13.9105 29.9122 50.5338
2793 1 33.9842 24.8897 52.5313
2796 1 34.6456 24.549 50.2547
954 1 34.9544 26.3572 51.2014
4623 1 33.7804 27.5652 53.2213
2613 1 19.6252 33.8656 51.391
4479 1 2.17606 29.2627 50.5466
2853 1 -0.0468281 30.6615 52.247
6548 1 0.502341 28.3541 51.9064
7579 1 2.79063 29.3546 52.7863
7322 1 34.9356 31.2262 51.3105
4710 1 3.29532 31.1807 51.3705
3433 1 3.47717 27.2646 48.9656
1507 1 5.37325 30.2051 51.8528
5873 1 7.53528 27.9715 51.6875
1827 1 4.33849 29.4371 49.2638
7178 1 3.01577 32.1864 49.2939
2711 1 20.277 35.9363 51.3076
3081 1 9.39 27.9399 50.6101
6315 1 11.3173 27.3744 48.9802
7881 1 11.5594 29.5313 47.9657
2861 1 8.32481 30.6745 51.9434
7962 1 9.80894 30.7124 49.7229
5656 1 10.1489 29.6195 52.7431
4217 1 11.6611 29.3019 50.5479
3421 1 10.3652 35.429 52.2522
5807 1 13.4715 28.494 48.915
7813 1 15.6603 29.9355 51.9916
2872 1 12.5694 30.4597 52.8203
439 1 19.7775 31.1863 53.0108
3417 1 15.7777 27.7622 50.1956
1418 1 2.70763 19.1966 53.3564
1404 1 18.3372 30.0411 51.4005
5577 1 17.6308 27.7017 52.6747
4296 1 17.3443 30.6046 53.7548
3360 1 22.1763 29.7285 52.0657
5348 1 20.6026 29.0944 50.0277
4372 1 20.1018 31.3706 50.6629
2238 1 21.8325 32.3919 53.3427
2943 1 24.2595 33.066 52.8642
7106 1 24.8658 31.8142 51.0261
7407 1 27.4033 31.4458 49.8471
4394 1 24.0761 30.6668 53.0015
7654 1 24.4682 28.9773 51.3163
5900 1 26.9513 29.5452 51.6283
924 1 28.4681 31.0226 52.3885
4549 1 30.7311 30.8175 52.3559
2450 1 29.4025 29.5427 50.7698
7087 1 30.4174 28.446 52.5705
4224 1 30.5485 31.2646 49.7764
4297 1 35.184 29.0529 52.0904
6318 1 32.5373 32.3734 51.499
1954 1 34.2678 29.0308 50.2079
2225 1 32.9566 29.965 52.4756
7510 1 13.2488 32.5272 51.8255
5427 1 2.27838 -0.217366 51.4496
1080 1 1.08836 31.8666 50.7446
5333 1 -0.529654 33.0314 52.2921
6457 1 0.926422 34.6849 51.6199
2303 1 3.2628 33.6106 51.0616
767 1 12.4991 31.4207 49.4135
3249 1 6.34319 34.2873 50.9906
5487 1 4.28713 32.6944 53.2405
3497 1 5.1152 32.3989 50.4246
628 1 7.89815 35.4796 52.4258
2274 1 17.8334 32.5195 50.529
1028 1 12.6089 35.7284 51.6278
6350 1 8.87348 35.0138 50.2745
1009 1 9.21654 33.0408 52.1248
6866 1 10.9732 31.5302 51.5418
2605 1 7.65782 32.259 50.5532
3652 1 26.3836 19.4009 53.2914
3354 1 17.882 32.6523 52.7961
2540 1 31.9509 15.6251 53.4514
3977 1 0.370628 23.5533 53.8478
7104 1 8.94589 27.6911 53.5924
4211 1 29.8422 2.79204 53.6554
6718 1 12.8866 1.6887 53.4883
1327 1 6.20196 19.1219 53.4065
3028 1 33.5422 17.4021 53.631
3513 1 36.1852 13.8049 53.5436
6789 1 12.4701 18.5573 53.6791
3415 1 33.0231 10.9976 53.753
3894 1 1.43658 15.2887 53.8848
5259 1 27.8915 4.07329 53.7468
858 1 18.6407 12.9547 53.7627
5998 1 8.49426 28.8003 35.6349
2244 1 26.8491 1.98171 35.6232
4931 1 21.57 8.87702 35.5328
6385 1 32.4765 34.6809 35.6759
7152 1 4.02749 30.5987 35.7878
6989 1 10.2384 35.9375 35.6245
6157 1 20.7799 2.65718 35.5959
1907 1 1.3113 0.574929 57.671
7840 1 3.47194 0.852679 56.3046
2153 1 4.84244 17.4773 54.2683
3907 1 1.22218 2.24888 55.504
1319 1 34.8316 9.61474 54.6271
6363 1 3.38094 0.919878 54.1195
2066 1 3.81201 3.26376 55.8829
5561 1 1.98829 35.6523 55.8839
2462 1 5.75615 1.10258 55.9349
5494 1 7.18598 3.30841 56.7062
6531 1 6.25007 3.82609 54.4852
238 1 6.74666 35.9465 57.8963
4709 1 4.66244 35.5836 55.3421
1321 1 6.95043 35.8486 55.0523
4707 1 10.581 1.14531 55.8253
4290 1 8.54562 0.985053 57.0079
4926 1 11.2109 2.20543 57.8123
2687 1 11.2499 4.85959 54.0333
2768 1 7.78604 1.66573 54.5573
3403 1 12.7913 0.812782 56.575
7508 1 10.7834 35.6829 56.3414
621 1 13.6032 2.1196 58.6127
1154 1 9.35354 36.143 54.4238
5177 1 14.8182 1.667 55.9155
3893 1 16.1726 0.599635 57.8748
3351 1 16.1163 3.47925 57.9057
365 1 17.486 1.83567 56.3126
7180 1 19.9067 3.67562 56.4401
7746 1 16.9287 0.653997 54.4405
3806 1 18.6732 -0.403079 57.713
708 1 19.7112 0.405727 55.6983
4553 1 22.0277 2.20125 56.9048
1733 1 21.2457 1.47766 54.6032
393 1 21.9505 0.209885 58.3424
3029 1 24.679 1.21538 56.3291
5488 1 26.7199 1.71494 54.0618
6941 1 28.3217 2.10514 55.929
6140 1 23.7638 3.61644 57.704
7437 1 27.0301 0.321837 56.3612
2217 1 14.7906 4.39203 55.5521
5431 1 26.9758 2.55787 57.9367
4862 1 23.882 35.9599 58.8234
5833 1 28.7547 0.211273 57.9841
1667 1 31.0939 1.49224 56.2331
3966 1 13.4409 6.24182 54.2371
3677 1 29.2927 35.9094 55.6561
6151 1 31.1201 0.752485 54.1373
782 1 33.9343 3.107 56.9484
4770 1 35.7342 0.632826 54.3355
3719 1 1.66473 11.6845 54.1826
701 1 35.7276 1.34553 56.749
2046 1 34.8242 35.322 53.9953
7189 1 33.412 1.01705 55.5006
4796 1 0.216805 6.34853 55.5671
7175 1 1.58354 4.63899 56.0794
6236 1 2.73462 6.66788 57.1202
6644 1 4.54726 5.46031 58.6763
2792 1 4.53666 5.26695 55.4763
4698 1 2.67475 6.6438 54.4645
5170 1 6.94974 6.08751 54.7823
1673 1 4.61731 3.16719 58.1335
2145 1 6.18832 5.24107 57.0073
6541 1 5.16181 7.58832 54.1859
4627 1 9.85756 7.28852 58.6256
7974 1 7.47459 7.65346 56.3934
6795 1 9.4875 3.65137 55.819
6700 1 8.79433 5.46559 59.7885
5022 1 9.4068 6.29451 55.3739
6724 1 9.83664 8.69825 56.4556
3511 1 10.8874 5.22699 57.174
6959 1 13.7232 4.43274 57.7092
5597 1 12.3635 3.44244 55.9565
6378 1 13.3154 6.28889 56.5916
7562 1 36.0643 11.5815 54.8418
556 1 20.6172 23.4278 54.9124
1800 1 17.945 4.42318 56.5648
1089 1 19.8873 6.46977 56.7991
6611 1 15.6038 6.04763 57.3966
3970 1 17.0856 3.47207 54.5487
4917 1 19.167 5.31081 54.6913
4300 1 15.0754 7.69466 55.8339
6199 1 17.0977 5.80544 54.7062
7277 1 23.1502 3.24964 55.1018
3391 1 21.4399 5.3194 55.5222
5899 1 35.5273 21.1338 54.782
3278 1 23.5655 6.42709 57.9657
5101 1 11.4785 29.2332 54.3493
4555 1 24.2312 5.37508 55.8359
2233 1 26.0215 3.75389 56.1224
631 1 18.5253 16.9948 54.1749
1983 1 26.2499 5.7911 54.8298
1958 1 24.724 7.66413 54.1834
4884 1 32.4552 35.0198 69.3826
6286 1 28.4514 3.85265 59.6643
5479 1 28.5493 7.80226 56.6844
4940 1 30.6102 4.63583 59.0022
5103 1 27.9484 4.55032 57.0622
7676 1 29.038 6.19573 54.1369
3500 1 30.3193 3.64633 55.7805
4534 1 29.8809 5.71725 56.8278
1748 1 30.7723 7.55621 55.7617
5481 1 32.7309 5.7313 58.0703
1821 1 36.1155 4.19299 56.2549
2858 1 35.1199 8.1368 56.2668
6717 1 35.2734 6.15713 57.6609
6449 1 33.9838 5.69874 55.5544
3734 1 35.0794 2.93665 54.8327
5034 1 11.9511 -0.486082 54.3563
378 1 0.135872 9.72727 56.4018
4303 1 1.97705 8.75257 55.4899
5334 1 0.639151 7.61243 57.3261
1831 1 1.17644 9.83943 59.0656
2704 1 32.2586 2.992 54.2136
2763 1 31.0794 26.9806 54.0506
2632 1 3.04904 8.92874 57.8584
4157 1 4.62232 9.70032 55.6378
7112 1 5.08963 7.39223 56.6187
1723 1 7.22093 9.3806 55.1464
6383 1 6.4324 9.4279 57.7385
3412 1 9.3518 11.0248 54.6267
7440 1 11.4065 10.069 55.2817
5888 1 10.7707 11.3787 57.1307
6481 1 34.3885 34.5922 70.6364
3255 1 12.2536 8.25257 57.5757
122 1 23.1969 34.3733 54.4183
300 1 11.4803 7.57988 54.806
5993 1 16.8232 9.57183 57.4022
2999 1 13.5332 9.9091 56.0259
1722 1 31.5631 17.9424 54.8866
4706 1 15.11 11.3278 56.9706
2458 1 13.4796 10.773 60.9707
3334 1 15.5905 9.83523 54.7792
4141 1 17.668 7.17316 56.6105
1837 1 17.537 10.7146 55.5417
2042 1 19.7305 9.23194 56.7644
3750 1 21.9132 7.54678 56.4629
5902 1 21.7397 9.80832 55.3013
1251 1 21.6076 10.568 57.6031
2119 1 23.3083 9.16425 57.1866
6857 1 22.2138 12.2458 55.4916
7641 1 24.1158 11.2471 54.1228
5985 1 27.1055 8.43713 54.719
316 1 26.3289 7.21004 57.1102
4230 1 25.1838 9.69664 55.5922
6460 1 27.028 9.46865 57.4723
1492 1 27.3773 11.5517 55.3137
5987 1 27.9835 11.6254 58.3595
6229 1 31.3539 8.07196 57.9072
7829 1 29.2862 10.1945 55.9559
400 1 30.7884 11.5264 54.5137
4239 1 30.3456 11.1006 58.0973
1520 1 34.2133 32.3802 69.5859
4626 1 34.6889 10.2797 57.342
7738 1 32.3308 9.72677 55.8775
1902 1 33.4667 11.8856 55.8582
6132 1 32.4261 10.1836 58.281
7186 1 33.8866 7.93567 58.0248
5683 1 32.6855 32.9223 71.5931
2304 1 31.4124 12.4308 56.6133
5409 1 2.44636 10.9697 56.5134
1499 1 13.8495 30.1713 54.8383
3983 1 19.7452 10.6371 54.5024
229 1 0.973929 13.5241 55.4128
383 1 2.25634 13.6504 57.3279
2452 1 5.80938 11.53 55.5898
2471 1 3.66904 13.0006 55.7061
2800 1 7.90883 10.8855 56.7926
7108 1 4.61187 11.9346 57.6831
7835 1 6.65477 13.1157 57.2318
278 1 5.33626 14.2958 58.9337
7879 1 10.1863 13.0904 55.0439
533 1 8.18707 14.0262 55.3693
7490 1 8.45185 15.79 56.9588
5575 1 9.15086 12.9417 57.3962
2549 1 9.39324 15.982 54.4213
4152 1 22.913 22.2489 54.0052
5919 1 19.5866 7.57547 54.6876
4447 1 13.1396 10.5637 58.1513
947 1 19.2224 29.3281 54.2148
2857 1 11.0822 13.7439 57.2243
7578 1 12.784 12.2349 56.195
5338 1 12.7952 14.4626 55.0933
4684 1 14.8312 18.5114 56.8702
6317 1 14.884 12.7504 55.2059
4445 1 17.5793 12.8988 56.7639
4310 1 16.6398 12.4478 58.5744
5819 1 18.8247 15.0044 55.4538
1919 1 19.5311 12.6379 55.9715
5674 1 18.3196 14.7905 57.6289
1277 1 20.4719 13.3827 58.1106
3993 1 23.5339 13.7853 56.7342
5519 1 22.6766 16.195 56.6072
4293 1 21.1664 14.3809 55.9824
1910 1 20.3359 15.9903 57.3705
3914 1 28.8454 32.8209 70.3949
2392 1 29.6452 25.1814 55.1749
478 1 24.3112 11.4194 57.1468
7996 1 25.5269 13.582 54.7243
7013 1 25.2898 15.494 55.9832
6119 1 26.1743 13.13 57.8332
611 1 27.3309 16.9053 54.9778
2134 1 32.6904 27.9712 55.1613
5515 1 28.8921 12.5709 56.3371
1336 1 27.6376 14.4823 55.9073
2714 1 30.0584 14.8932 56.548
3409 1 29.8302 13.3639 58.4523
4804 1 28.9504 34.8718 69.5508
2880 1 29.7069 16.438 54.6369
1916 1 35.6723 13.3293 56.5451
1012 1 0.337083 11.8369 57.7965
2797 1 32.1325 13.7029 54.9699
1869 1 35.3849 13.702 58.8792
5253 1 32.5612 14.4074 57.5383
5410 1 34.1756 11.9777 58.579
1261 1 0.259528 8.99541 54.0481
6552 1 1.96041 15.7502 56.2544
4374 1 0.151484 15.4986 57.8636
694 1 2.74507 17.568 55.6369
3091 1 3.56854 18.6617 58.1533
2241 1 0.76833 18.0222 57.598
523 1 -0.337325 19.4933 56.3263
6452 1 29.7632 14.0784 54.4865
1275 1 5.74102 15.3239 56.6836
7427 1 30.7762 33.1325 69.3422
2465 1 7.13713 18.3983 56.8112
4069 1 19.4304 19.4112 54.118
6302 1 5.94965 16.4502 59.0823
7755 1 5.02251 18.1203 56.8226
5513 1 3.705 16.1102 57.5917
2463 1 32.7975 25.5332 54.4966
299 1 7.91508 17.5117 59.0196
6538 1 7.72841 17.3984 54.7923
1107 1 11.1189 16.1363 57.2355
2236 1 9.81676 17.8692 56.322
5415 1 15.1159 17.3216 59.2544
1412 1 12.643 20.9387 55.1148
5672 1 11.67 16.6422 55.1414
853 1 13.7953 15.4399 56.9409
2043 1 12.1718 19 56.4631
2918 1 13.499 19.4077 58.7764
5682 1 30.8826 34.7014 71.1215
5113 1 18.1901 19.6455 56.5593
6444 1 15.7487 14.228 56.864
2877 1 16.5678 19.1819 58.4231
2232 1 18.0319 17.0503 56.6031
4960 1 0.903332 29.2422 54.5526
7984 1 1.27914 -0.0116587 54.0746
7581 1 16.4678 18.2775 55.1263
4697 1 20.9597 16.2775 54.0135
3510 1 20.343 17.7877 55.8697
5518 1 21.1918 17.3326 58.9432
5185 1 25.0565 20.7233 55.5106
65 1 26.2749 16.9477 57.6535
1359 1 25.0559 17.7378 55.5402
5026 1 27.2628 19.1237 55.8137
75 1 22.7597 18.6037 56.283
2718 1 23.8627 16.9675 58.1417
6788 1 28.4783 17.7211 57.638
1410 1 30.4695 16.6641 57.7362
1830 1 32.33 15.998 55.9
5496 1 27.0598 19.332 58.6131
4701 1 30.1744 19.1277 56.7452
1026 1 29.2605 18.8607 54.4526
4523 1 34.1479 15.1221 54.8592
382 1 32.2038 18.4041 57.4826
3834 1 33.9111 19.6905 55.4172
4941 1 34.3985 15.7043 57.6766
3733 1 34.471 18.3107 57.6883
7908 1 35.1422 17.5259 55.8188
7983 1 1.00701 20.5105 58.0734
2545 1 2.48206 20.2547 56.4686
1200 1 0.544651 22.3136 56.2143
6238 1 0.0934976 23.2559 58.5397
1091 1 2.25324 22.8264 57.3501
7044 1 2.58398 25.0868 58.7984
2211 1 4.37714 19.579 54.7056
394 1 4.89586 20.7459 57.1027
4079 1 6.18808 20.8751 54.9607
385 1 4.71312 23.2118 58.3821
7035 1 4.98281 22.9925 56.0259
7258 1 6.63438 21.455 58.1885
4783 1 9.00877 20.0646 56.5518
4779 1 8.67091 20.2521 59.0444
6716 1 8.69736 23.0763 57.7143
1913 1 10.4354 21.9743 55.374
7839 1 8.2332 24.3225 59.3494
6306 1 7.34866 22.8299 55.9407
6147 1 14.3989 22.5003 55.3715
460 1 13.5959 21.0547 57.2019
690 1 10.5754 23.6657 59.2001
5814 1 12.3135 23.4336 56.4792
69 1 12.9674 24.3499 54.6841
5102 1 14.5476 23.5445 58.1473
5033 1 11.0209 21.4623 57.91
2798 1 14.6979 19.612 54.4396
4552 1 15.6358 20.6845 56.5283
2235 1 17.0257 22.2271 57.3566
3903 1 14.434 -0.224758 54.4328
2539 1 18.7957 21.648 55.5333
6465 1 18.2403 26.6248 54.4664
2854 1 20.4336 22.017 57.1115
1320 1 21.0575 20.1546 55.2237
3668 1 23.3719 22.1863 58.5193
7102 1 22.5017 24.279 56.3899
2552 1 24.6363 23.1121 56.5844
7987 1 22.8478 21.5597 56.101
7758 1 28.6568 20.6093 57.8329
2146 1 26.3635 21.1864 57.2742
5806 1 24.7144 25.2983 55.5747
4683 1 25.6844 25.2378 57.6909
7415 1 33.1709 8.10343 54.5512
762 1 25.3478 23.2438 59.1407
6226 1 31.1852 20.7336 58.3664
3198 1 26.02 22.9212 54.427
3916 1 29.6133 22.5815 59.0819
4466 1 27.6469 23.4735 57.5664
3184 1 28.608 22.5796 55.8394
3833 1 31.7748 22.9268 57.9918
1407 1 31.2043 22.8792 55.7607
143 1 4.08484 15.2893 54.9319
6379 1 16.1767 15.8098 55.4215
6720 1 33.1207 21.396 56.5163
7496 1 31.5487 5.41549 54.5816
6471 1 35.4424 21.0427 57.8417
551 1 35.143 23.1721 56.8031
6480 1 33.6996 20.5134 59.2575
3358 1 2.91082 22.8103 55.1378
3353 1 1.90638 25.169 54.4732
4787 1 1.45271 25.499 56.87
5581 1 0.418576 27.0126 55.0846
41 1 8.35888 20.5403 54.2744
4759 1 6.98818 27.3594 55.6217
3591 1 5.26502 25.1418 57.6178
2515 1 3.79709 29.2655 58.2227
443 1 3.60795 24.7864 56.1389
1276 1 5.76996 27.8974 57.5581
7040 1 8.53561 25.4677 54.4905
3420 1 11.428 27.121 54.8465
4939 1 9.42416 27.0755 56.0969
2451 1 10.1291 24.3759 56.1685
6780 1 8.10113 25.5164 57.1703
1438 1 10.6378 28.1435 58.2189
1161 1 24.0509 19.1576 54.2689
1347 1 10.0779 25.7593 58.71
2875 1 13.7587 27.1685 55.2398
5593 1 12.463 24.7424 58.7196
3844 1 11.5913 25.8378 56.8463
5187 1 0.387846 34.693 54.0747
4160 1 14.2739 25.1775 56.3635
3268 1 12.0994 28.4005 56.4585
7965 1 15.9577 25.98 54.6493
5339 1 16.8662 24.4795 56.6155
1884 1 18.2746 24.4169 54.7117
5435 1 19.2026 23.7811 57.2517
7018 1 19.9345 26.5781 57.3987
71 1 23.1281 24.4342 58.453
1600 1 22.8161 24.8139 54.0041
1661 1 20.3839 25.5435 55.3845
5172 1 23.2646 27.3333 55.235
2208 1 20.9016 27.8084 55.6867
6069 1 24.675 27.9293 59.0942
3323 1 22.0805 29.9407 54.2634
4801 1 24.586 32.8086 70.4966
6769 1 25.1433 27.0928 56.8628
306 1 25.6283 25.8393 60.1425
397 1 27.0992 25.5211 54.6952
4837 1 32.1683 31.9476 53.9912
2142 1 26.9739 27.3518 58.5503
5740 1 29.8641 24.4192 57.3361
137 1 31.6969 26.4792 57.1796
3740 1 27.778 26.0045 56.7073
765 1 27.5412 21.0865 54.1815
5092 1 29.4738 27.9357 55.4659
1179 1 30.0313 27.134 58.601
5591 1 9.21467 8.26625 54.2176
3264 1 35.2576 25.936 53.929
4151 1 34.2697 26.5395 56.3154
3425 1 34.7314 25.2622 58.1439
3491 1 -0.3883 24.6819 56.0787
5827 1 33.1531 24.1064 56.6262
4048 1 3.25744 29.0443 55.2387
7080 1 4.45925 26.8795 55.1253
6080 1 1.46183 21.0069 54.485
2603 1 -0.367256 29.8005 56.5986
1812 1 1.19855 29.0577 58.8515
4766 1 0.0730622 31.4267 54.4516
2561 1 5.68837 29.2635 55.8956
296 1 5.05802 30.9272 54.3056
3556 1 0.574604 18.1881 54.4695
7023 1 7.21307 30.9679 55.7621
6052 1 2.09659 30.5271 56.8067
3965 1 5.45353 32.6173 59.1826
1183 1 14.1134 16.8167 54.9346
6958 1 5.64822 13.57 54.5052
623 1 8.99604 29.2695 55.2511
5184 1 8.21608 28.9534 57.2269
5573 1 9.25616 31.2133 57.6364
2620 1 31.6203 20.3668 54.9323
7355 1 10.2977 18.6554 54.4147
5100 1 11.0098 30.8464 56.0802
7514 1 13.0137 28.9205 58.5396
7099 1 15.3538 27.7395 56.9054
878 1 13.3997 31.2793 56.8528
7252 1 17.9823 27.7485 56.5802
3272 1 15.4929 28.3874 54.2709
4876 1 16.5514 31.6528 55.9164
5658 1 16.7024 29.6024 57.2072
6869 1 18.7168 30.4542 56.7115
2357 1 20.5671 28.7945 57.9467
7275 1 19.5087 32.1655 55.0454
2621 1 18.0363 32.9182 57.7374
5739 1 23.7252 31.6845 55.3253
3100 1 20.9406 30.4217 56.238
7570 1 22.9953 31.4381 57.6325
4928 1 23.1768 29.3347 56.8785
4229 1 26.7536 30.6241 55.0346
6210 1 24.3701 29.3262 54.936
7565 1 25.2893 32.5633 57.2012
4850 1 27.0104 28.4261 55.8851
635 1 27.3874 31.0039 57.3193
2694 1 25.4603 29.8884 57.546
5117 1 34.1283 23.4039 54.6347
4004 1 26.7437 34.1611 70.3837
3043 1 19.7704 21.7119 72.0014
6303 1 31.3115 29.5947 54.1602
3755 1 29.4063 30.1695 55.8357
4477 1 28.3605 28.7564 57.4894
6551 1 30.1976 30.4137 58.3099
7827 1 35.2496 28.4842 55.0612
3657 1 31.6436 31.7374 56.2995
1578 1 33.4478 29.9286 54.9825
5426 1 31.2011 28.7503 56.9121
4464 1 34.9353 31.6013 56.347
5837 1 33.6675 28.5042 57.3522
7679 1 1.05327 33.2157 56.3167
859 1 -0.308022 35.6984 56.0821
1190 1 17.5946 8.83464 53.9607
3508 1 0.875915 35.0304 57.9265
6156 1 0.110762 31.7316 57.7894
5405 1 16.8418 21.2109 54.714
4864 1 4.87424 0.104343 58.0825
3122 1 18.2303 31.0423 71.7748
2299 1 2.57755 31.0184 54.3171
7503 1 3.44447 33.3572 55.4647
5180 1 5.03716 34.3078 57.2382
4045 1 6.12255 33.2355 55.2335
704 1 9.34606 32.8692 55.6974
7791 1 10.6163 34.1896 54.3296
1197 1 8.31179 33.8365 54.0749
1651 1 8.61999 35.0119 56.5865
6463 1 7.40891 34.2468 59.6991
154 1 13.5271 33.5232 58.1494
2868 1 12.6314 32.2625 54.5304
1517 1 14.4822 36.0793 56.7521
1357 1 11.5567 33.1371 57.1011
5119 1 12.868 34.7842 55.7066
2226 1 18.9744 2.4761 54.5974
43 1 18.4626 35.6146 54.064
920 1 16.8615 35.7248 56.1731
4238 1 14.9827 33.5069 55.5925
1664 1 17.2801 33.6491 54.7771
2048 1 16.8658 35.0305 58.324
388 1 15.6386 32.7071 57.9942
7197 1 21.3061 35.8792 54.396
2385 1 22.998 34.2265 57.4574
4554 1 22.9161 -0.323057 56.027
6871 1 18.7277 34.51 56.0569
1247 1 20.645 35.2077 56.9856
4461 1 20.4494 32.5952 57.6394
3997 1 25.1925 -0.486785 54.4039
5892 1 21.6908 33.3611 55.7493
149 1 25.797 32.9759 54.777
6049 1 24.5183 33.5734 59.3168
4311 1 26.5563 34.1742 58.315
7438 1 25.1257 35.424 56.8237
6139 1 28.8134 34.5927 57.343
3920 1 27.0284 34.8067 55.8402
1268 1 31.5426 35.9416 56.9003
3520 1 30.5468 33.7985 55.475
6320 1 28.0152 32.6988 55.8474
2231 1 31.1046 33.4651 57.8403
4455 1 28.5126 32.5172 58.6713
217 1 33.1895 35.2986 58.9029
5475 1 33.4994 33.2943 58.137
2373 1 35.4129 33.6998 57.3495
713 1 35.5098 33.5185 55.1881
3104 1 33.2703 33.3745 55.4504
5120 1 33.9858 35.6186 56.1825
7979 1 32.2835 35.2613 54.3232
5030 1 2.28313 2.83309 57.9231
123 1 -0.0120536 -0.164214 60.0538
7422 1 35.0931 1.83229 59.3162
7185 1 1.61176 2.53919 60.808
1409 1 1.727 0.55954 62.0719
73 1 35.7766 2.55166 61.5069
1267 1 36.048 0.476735 62.3254
5914 1 2.94272 -0.100861 64.1994
1106 1 3.61813 1.48603 62.5971
2300 1 8.21546 1.94221 59.9229
4700 1 3.83196 0.894529 60.0543
2203 1 5.73264 2.74677 60.6209
1512 1 5.60887 0.360866 62.8871
785 1 6.62617 1.70337 58.1611
5178 1 9.14692 35.9703 58.5904
7326 1 7.75375 1.48254 61.9934
2474 1 9.74544 0.508201 62.2409
5350 1 8.22687 -0.464923 60.8916
3338 1 10.4406 1.01157 59.8786
3280 1 9.55935 3.53649 58.6282
3742 1 7.40537 3.85269 62.3279
2779 1 9.77474 2.71364 63.4323
7491 1 12.3671 35.5462 58.2649
2148 1 13.2079 1.21144 60.6976
3040 1 16.0728 1.7023 59.8757
4043 1 14.1558 -0.514657 59.4102
1676 1 11.2578 35.7537 60.9567
1338 1 13.549 2.96334 62.5344
2922 1 14.8516 0.477068 62.3366
1659 1 17.9541 -0.161943 60.0011
5278 1 17.9315 1.97823 58.7562
6793 1 19.5685 1.87809 60.4088
4958 1 17.1645 0.986386 61.7844
5500 1 19.6876 4.14734 58.6843
4314 1 20.092 1.39034 57.9466
553 1 21.9668 1.17696 60.473
5359 1 21.1044 0.826634 63.3043
948 1 21.9698 3.21474 59.4993
7263 1 18.2855 2.66398 62.4118
555 1 23.6535 0.542251 62.9562
1915 1 24.8059 1.51417 58.8893
3672 1 26.0603 1.40943 61.972
2639 1 23.7509 2.65014 61.6842
942 1 26.0039 3.28503 60.0524
4531 1 27.4751 -0.360677 61.1313
3099 1 31.2349 1.23508 58.8716
3891 1 27.7365 1.64916 59.9698
5245 1 29.8614 2.84087 57.7785
5651 1 30.4737 2.89845 60.4532
3165 1 32.091 3.05133 58.0403
695 1 29.6871 0.309507 60.4038
4865 1 28.5784 1.10061 62.4491
5969 1 31.1761 1.33281 62.4868
3352 1 33.4246 0.626298 57.8485
5024 1 32.0745 -0.0592903 60.6001
7906 1 33.6803 0.791209 62.4315
6949 1 35.4573 -0.465126 58.1564
3359 1 32.848 2.17137 60.2989
7582 1 34.3855 0.153544 60.3916
1657 1 0.132634 3.086 58.8155
7907 1 1.27711 4.23684 62.2284
1815 1 2.22468 4.58972 59.7034
2152 1 0.536865 5.34449 58.1263
7818 1 3.73837 6.62871 60.8109
7998 1 0.408071 6.76205 60.5303
6792 1 -0.329288 4.54886 60.1933
2553 1 35.7701 6.03231 62.3234
5031 1 3.59443 3.46315 61.3373
396 1 5.85051 5.53551 60.9846
5006 1 5.5185 7.88407 61.3795
1999 1 6.72742 6.77375 63.0512
7124 1 6.92855 4.07154 59.1729
2147 1 6.89276 7.13976 58.9655
147 1 8.59439 5.4192 57.2872
1997 1 10.9615 5.87376 60.9594
6074 1 9.75161 3.67175 60.8665
641 1 9.29052 5.4334 62.5464
6880 1 10.5946 8.65831 61.0645
540 1 8.1241 7.16679 61.1151
550 1 12.2694 6.38625 58.8255
463 1 11.5559 2.3425 61.9378
5195 1 11.8626 3.62106 59.7746
5974 1 13.2337 5.48075 61.0292
5760 1 14.1874 3.15387 60.26
5897 1 15.8827 4.87896 59.7939
2625 1 14.57 6.83745 59.7107
3439 1 17.7966 5.51033 58.5325
1750 1 15.9509 7.40888 62.2477
6709 1 18.2898 6.98914 60.5933
1589 1 15.9464 2.92117 61.9536
467 1 18.9645 8.14452 58.8367
4853 1 21.8089 4.87926 58.0473
2129 1 18.0373 3.66783 60.0836
1184 1 21.9154 4.79187 61.2172
3263 1 20.6507 6.27587 59.1811
4401 1 23.1436 7.9972 60.099
5193 1 23.0286 7.27883 62.4189
4395 1 19.4793 5.10882 61.3094
5025 1 24.1818 4.68022 59.87
1908 1 23.7715 5.01481 62.8448
693 1 25.7287 4.9205 58.2368
1167 1 26.4861 5.1926 60.8563
1977 1 25.5184 6.98479 59.9659
5524 1 25.8168 7.16955 62.6674
139 1 27.9042 3.27068 61.7003
4717 1 27.7498 6.51521 58.8737
5432 1 27.5861 5.32385 62.7347
5831 1 30.1247 7.23816 59.6628
3982 1 29.5836 5.44665 61.1357
7091 1 29.9188 3.77871 62.6999
6386 1 32.2506 5.3981 61.0192
4720 1 27.7844 7.27683 61.3859
797 1 30.9236 7.27115 62.3144
4473 1 29.1287 7.62214 63.611
480 1 33.8985 4.12603 59.2044
7997 1 34.6697 6.31659 60.2188
7981 1 32.6349 7.76526 60.1281
6610 1 34.2587 4.33815 61.9251
3106 1 33.588 6.84221 62.4891
5727 1 2.15394 7.12268 59.3011
3653 1 3.38352 8.16721 62.6139
7880 1 2.15898 8.79651 60.822
3895 1 2.49336 11.8271 58.8286
6532 1 0.573779 10.4779 61.5625
3088 1 4.54758 7.91872 58.9002
5517 1 3.64204 9.99822 59.7297
1984 1 5.46378 8.44029 63.919
5323 1 6.24663 9.26173 59.9904
2383 1 6.42918 11.4602 59.1291
7506 1 8.9195 9.26209 58.5036
1165 1 8.4985 9.4679 60.7172
2069 1 9.57185 10.1022 63.0446
4478 1 8.24486 11.6504 62.1772
6868 1 11.0219 9.52829 58.8338
3482 1 14.5561 8.62197 58.0221
1838 1 13.0591 7.60836 62.2216
4133 1 12.8716 8.42549 59.9209
5077 1 10.6767 10.9124 60.9335
6863 1 15.4125 9.10581 61.0059
6469 1 11.922 9.73643 63.0557
864 1 18.6229 11.0558 57.8101
3398 1 16.5548 7.95572 58.9064
376 1 17.487 10.4864 59.8828
5438 1 18.4146 10.939 64.3796
5992 1 17.955 8.98327 61.6264
1271 1 18.679 12.8762 59.4436
5349 1 20.5886 6.91717 61.6832
5820 1 19.9421 9.79392 59.6137
3745 1 21.2297 11.7103 59.7052
4689 1 21.6164 8.19552 58.6459
5901 1 21.6398 9.19808 61.6425
6713 1 24.8836 8.72716 58.4045
3177 1 25.0468 9.38745 61.3845
4319 1 23.1716 10.1937 59.3259
6617 1 25.3029 11.3972 59.301
1594 1 23.5752 11.2278 61.515
227 1 27.5808 10.7403 60.5639
7977 1 26.9859 8.79701 59.8402
3183 1 27.1381 9.16951 62.9305
1583 1 26.2792 12.2052 61.7027
4073 1 29.2695 9.39079 58.6584
3340 1 29.2862 9.00098 61.364
479 1 30.8846 11.1586 61.9715
4320 1 30.9137 10.0271 59.9209
1096 1 36.0809 8.47923 59.474
4615 1 35.8941 11.3309 59.7613
6474 1 35.1595 8.58848 61.9729
6076 1 34.3451 9.7476 59.7895
2301 1 32.4013 9.32536 61.8062
318 1 33.0227 11.601 60.72
7838 1 34.4909 11.505 62.7416
5086 1 2.20493 13.1413 61.6308
56 1 0.775084 13.4182 59.6731
1587 1 -0.307912 14.972 60.5036
3889 1 3.07681 14.4872 59.5369
2641 1 2.13673 12.1338 64.0483
4599 1 2.82842 10.6859 61.8665
2556 1 5.62972 10.6685 61.7063
5486 1 4.35077 12.474 60.4117
5823 1 6.44962 13.0329 61.0075
2051 1 6.87572 14.7541 62.9466
1579 1 7.53294 14.3052 59.1639
2860 1 4.43112 12.2494 62.882
5015 1 8.5991 11.4952 59.6842
7598 1 9.92621 13.9384 59.4729
5995 1 11.207 13.5405 61.2517
5916 1 11.0934 15.8639 61.1569
2637 1 8.53665 14.2166 61.547
2234 1 14.0243 12.977 58.2251
6635 1 16.0335 12.6415 60.7416
6956 1 11.4743 12.0734 59.0738
6142 1 12.4391 14.6873 59.2298
1348 1 14.5435 9.74053 63.124
2062 1 13.8833 13.5254 60.5738
3502 1 15.8451 14.78 62.0035
2156 1 15.1739 14.9096 59.2276
4637 1 13.3222 14.6738 62.7297
3571 1 15.1107 10.8883 59.2178
6158 1 18.7035 15.6788 61.943
2061 1 17.4771 14.4241 60.3569
1346 1 17.9394 13.2949 62.4164
3976 1 22.2826 15.0739 58.8833
3979 1 22.3378 13.7823 61.2719
871 1 20.9016 14.8042 63.1406
5423 1 20.1214 13.8699 61.0961
6697 1 19.1006 11.5032 61.524
1562 1 23.2186 12.6617 58.8822
3753 1 24.8521 13.2721 60.271
4076 1 25.5994 15.1704 62.2486
1420 1 27.784 15.3532 62.3084
7255 1 27.6202 13.5649 59.7434
705 1 24.7479 14.8533 58.2439
6639 1 26.4373 15.5368 59.7228
3350 1 28.0924 15.4004 57.9951
5343 1 29.6841 12.0581 60.2545
3589 1 29.6743 14.8176 60.0376
4950 1 28.6905 13.2964 62.1588
5647 1 30.4923 14.8405 62.6607
5437 1 31.3548 13.5977 61.2225
6392 1 -0.133582 12.657 61.7415
2466 1 32.952 15.204 62.6617
1899 1 31.9565 13.0171 59.2806
2140 1 32.1639 12.7611 63.095
4061 1 34.0239 13.9725 60.9507
6470 1 0.980158 14.6602 63.0851
2001 1 0.688988 20.1888 61.9958
5358 1 0.35113 17.2733 61.4856
1758 1 1.45127 16.6895 59.362
3581 1 1.92427 19.1673 59.7546
559 1 2.59937 15.8126 61.5919
5420 1 3.72977 16.8574 60.0801
7643 1 4.89719 14.6361 61.688
1116 1 6.69656 20.1703 60.5852
7814 1 5.67049 16.9157 61.6343
939 1 7.67428 18.6754 62.491
1888 1 9.44974 16.7188 62.896
6376 1 7.76232 16.0165 60.8656
78 1 10.2744 18.9505 58.3405
2318 1 10.0114 19.1386 63.2884
1100 1 9.53386 18.1922 61.0643
1494 1 9.65298 16.435 59.2099
3199 1 13.8355 15.9316 60.8257
3915 1 12.9753 17.1013 58.2572
7821 1 11.7974 17.747 60.1216
6879 1 12.142 17.1333 63.0013
5832 1 14.4016 16.9347 62.7563
1834 1 17.4319 16.5816 58.6618
6296 1 17.0039 17.1244 61.0828
1076 1 18.9775 18.203 59.7332
3494 1 18.3993 20.0568 61.0484
534 1 16.7617 16.3842 63.7186
7492 1 20.6662 19.2736 57.427
3097 1 22.549 20.1132 58.4129
1088 1 21.3329 16.2899 60.9391
3242 1 19.5757 15.5996 59.7343
926 1 19.3832 17.9849 62.2306
3498 1 21.3368 18.8016 60.4484
1176 1 22.5628 17.8472 62.7117
5279 1 23.5989 17.9785 60.2672
2281 1 24.8569 17.639 62.3914
560 1 24.0013 15.4598 60.428
2313 1 25.0136 19.15 57.2743
1437 1 27.3244 17.7884 62.4501
7424 1 25.9273 19.6598 61.523
219 1 27.9682 19.8698 63.3848
3831 1 26.115 17.7003 59.7511
7113 1 31.275 16.5314 60.4619
5107 1 28.4629 16.956 60.1864
1112 1 30.1263 19.3518 62.758
6543 1 30.3986 18.63 59.7241
1436 1 29.6108 16.9149 62.5237
5430 1 34.127 16.7079 61.3874
2220 1 33.1545 15.6592 59.3764
6217 1 31.4755 16.972 63.6316
1498 1 35.5622 16.9864 59.5161
7920 1 33.387 18.7094 62.898
6791 1 33.0686 18.1911 59.7274
7901 1 35.8475 19.4625 59.4213
7334 1 34.9614 19.099 61.4913
6131 1 3.09573 21.1133 58.749
1760 1 3.3873 20.7834 61.4992
5991 1 -0.112955 22.1248 62.8228
856 1 1.26844 21.7113 60.0618
5999 1 1.64075 25.6889 61.1723
6712 1 4.33152 19.1356 60.2836
1426 1 5.94496 19.0641 58.7357
2936 1 9.25502 20.6077 61.5754
6955 1 5.09388 22.1297 62.2737
7357 1 3.01106 23.2809 59.9851
6307 1 4.99374 21.4377 59.9993
6384 1 5.41471 19.7113 62.8556
2960 1 6.16495 24.0916 60.4819
798 1 7.45135 21.7734 63.0325
4625 1 11.5489 21.0313 62.8024
5665 1 7.91013 22.3781 60.565
6683 1 11.0478 20.0749 60.113
5503 1 12.5044 24.052 60.8113
7116 1 13.5815 19.3559 62.9872
4869 1 12.7707 22.335 59.3954
3911 1 13.6653 18.2584 61.0674
6942 1 15.8397 20.1501 64.0942
1680 1 13.2571 20.8467 60.9188
6872 1 16.303 20.8063 62.0137
3832 1 14.9143 22.7049 61.4124
7034 1 16.588 23.509 59.6714
2472 1 13.6969 21.692 63.404
6305 1 15.8853 19.1894 60.4398
3107 1 18.96 22.8458 59.1889
6794 1 18.0295 20.7108 58.8762
4465 1 15.1286 21.2106 59.3264
1013 1 19.9536 23.4422 63.4375
1103 1 21.0854 20.3769 61.963
7028 1 17.7057 22.2955 61.3342
2074 1 20.1944 22.4697 61.397
788 1 23.0146 20.6817 60.8907
2784 1 21.0272 21.2055 64.1011
2715 1 22.0643 22.7248 62.6635
2691 1 20.9767 21.2581 59.6415
3190 1 20.977 24.7806 58.697
218 1 24.8203 20.109 59.2914
1101 1 27.0441 21.5466 59.7954
3435 1 26.0505 24.3864 61.8489
3756 1 24.8253 21.8344 61.2843
5258 1 27.1001 22.1838 62.4178
301 1 25.4884 25.625 64.0947
4712 1 28.3252 19.2158 60.7602
3764 1 31.9231 19.8729 61.3909
5750 1 28.0353 24.0147 60.1796
6397 1 29.4253 21.3974 61.1123
692 1 32.1421 21.9552 60.2428
313 1 31.6336 21.4593 63.0659
6783 1 33.7244 21.4332 62.2345
5204 1 35.4841 21.5176 60.517
5673 1 34.007 23.1806 59.2072
7267 1 34.6013 23.708 61.4375
5675 1 32.474 24.0005 61.4283
7729 1 3.43554 26.9216 57.3065
6394 1 0.18425 23.9592 60.6073
2633 1 0.343573 25.9346 59.3348
307 1 4.05085 24.2882 61.8594
1178 1 -0.465447 26.2408 62.2795
5512 1 3.37649 27.1136 62.0864
2623 1 6.30686 24.099 62.9743
6362 1 2.23049 27.2276 59.3976
6696 1 4.50393 25.8781 59.9501
3262 1 4.8068 28.3657 59.9905
7155 1 8.17571 24.4325 62.0286
7678 1 6.60597 26.3414 59.1579
7195 1 9.94681 25.2718 60.8408
2052 1 8.64424 27.5384 59.2414
1662 1 8.07046 26.6671 61.4669
2141 1 10.21 27.6841 61.322
6279 1 13.7304 26.7029 58.108
3727 1 10.8656 29.8234 60.4297
934 1 12.0571 26.7363 60.0283
3980 1 14.7658 25.1374 59.9644
7513 1 12.1176 26.2862 62.598
1191 1 14.4166 26.8968 61.8243
862 1 16.515 25.9898 58.4742
4943 1 18.4852 25.1994 58.9543
3715 1 18.4207 28.261 59.2761
7325 1 16.5217 24.7805 61.7615
3760 1 18.7957 24.4921 61.0548
6155 1 20.0698 29.4087 60.5243
3094 1 17.5397 26.8535 60.6794
952 1 20.3227 26.4146 63.2632
2078 1 23.1908 26.3298 60.0959
7184 1 20.3103 27.0337 59.9358
3196 1 22.6299 26.8623 57.8559
7187 1 21.3088 28.1039 61.9953
7107 1 22.725 27.1525 63.3183
5255 1 21.0977 24.9314 61.0082
2390 1 26.5446 28.2779 60.5943
5679 1 28.2275 25.39 58.6209
1355 1 23.1663 23.483 60.5643
1349 1 23.9104 25.6077 62.0235
687 1 28.096 24.6674 62.9911
2953 1 28.8439 28.166 60.3311
6472 1 27.2588 26.4473 61.5297
528 1 30.0412 23.4021 61.9369
7027 1 30.2973 24.8888 60.1351
3324 1 29.3833 26.4833 61.5507
1257 1 31.5144 26.9661 60.3934
3910 1 36.124 27.3405 57.5939
7276 1 34.5729 25.6954 60.5662
625 1 32.6082 28.3723 63.2359
1007 1 32.203 24.9784 58.7941
2378 1 33.6664 25.9032 62.6408
4541 1 -0.407941 28.0374 60.5925
7344 1 1.61097 28.1496 56.7331
1023 1 0.869095 31.3052 60.4633
2785 1 0.471334 31.6118 63.2767
5662 1 1.25886 28.4824 62.5808
5896 1 2.70488 31.5217 58.9834
7583 1 2.65155 29.184 61.0148
6072 1 6.52204 30.4016 58.4106
5971 1 4.60943 31.7187 56.831
3355 1 6.87566 28.5594 60.5472
1343 1 5.0327 30.5709 60.4634
3024 1 4.88141 29.253 62.2516
3722 1 2.68203 31.3388 61.9457
4119 1 11.6044 31.1394 61.7924
3195 1 7.10791 32.7104 57.8292
3483 1 8.86567 29.3881 62.0094
1797 1 8.65693 30.0011 59.437
6707 1 12.3949 28.7669 62.6665
5257 1 7.34373 33.0143 63.3888
1678 1 9.42799 31.3865 62.6358
1759 1 15.1582 27.8912 59.4953
6936 1 14.8648 30.8964 59.1033
3918 1 16.1397 28.6756 61.582
6946 1 13.4011 32.3718 60.3809
5003 1 13.4256 29.2997 60.8574
7279 1 11.5938 31.8194 63.8261
7915 1 15.747 31.1963 61.6441
922 1 13.7566 30.9675 62.5634
7110 1 18.7262 31.0591 58.7915
5588 1 17.5983 32.4755 60.0704
6527 1 16.9242 30.0864 59.8235
4879 1 20.1398 32.1546 60.4026
2559 1 18.8174 28.0879 62.4798
6854 1 17.8765 29.9614 61.9879
7888 1 24.7785 30.3338 59.8946
2871 1 21.0511 30.3338 62.6966
5670 1 22.2698 28.7763 59.4237
4042 1 23.7596 28.0708 61.2275
1825 1 22.4043 30.7822 61.1156
1752 1 21.2092 31.0006 59.0351
1252 1 24.3878 32.3932 61.1446
3517 1 25.5437 30.2992 62.0522
855 1 26.4123 31.8073 59.1761
4381 1 27.553 30.7768 61.1676
7114 1 27.5516 29.7071 59.1338
7192 1 28.2152 28.7976 62.3243
3967 1 31.9522 29.3121 59.3821
2855 1 29.629 31.4555 60.555
6399 1 29.2575 30.8914 62.9803
6213 1 33.5666 29.0484 60.8995
7017 1 30.853 28.8081 61.4852
2387 1 33.4001 27.0978 58.9971
6053 1 34.9555 28.4542 62.7208
1751 1 33.3692 30.8766 58.228
7509 1 35.575 30.4596 61.5224
5977 1 35.249 29.561 59.0295
1114 1 33.6259 30.8549 63.2133
6073 1 35.0344 32.0641 59.2335
5342 1 33.4468 31.3801 60.9172
7245 1 0.644036 33.3653 60.007
3419 1 0.640555 35.0879 61.3877
1014 1 2.34008 35.4947 59.7325
191 1 35.3393 34.6324 59.9665
6520 1 2.76454 33.5001 57.8163
4139 1 4.71826 34.8057 59.5083
5096 1 4.80664 32.6495 62.4884
4383 1 6.30128 34.898 62.0908
5882 1 3.18002 33.4557 60.6478
7740 1 3.72127 35.2905 62.0021
2636 1 6.26435 0.196063 60.0426
3830 1 9.78668 31.7789 60.2683
1592 1 9.28517 33.555 58.2329
2438 1 7.4222 32.0243 60.6717
1024 1 9.49498 34.0279 61.0726
2947 1 9.79289 33.5209 63.8808
6952 1 8.49003 35.4206 63.0667
2464 1 11.5546 31.0189 58.4974
2845 1 11.7752 33.5415 61.9913
869 1 11.2254 33.3711 59.3899
6691 1 13.5563 34.8029 61.2188
4301 1 15.3729 33.6529 60.1799
543 1 13.5195 33.6437 63.6561
4134 1 11.2952 35.0646 63.5711
7592 1 19.3221 34.2027 59.0246
3109 1 20.2595 -0.459928 59.5946
4687 1 20.2472 34.5321 61.3318
4125 1 15.8235 35.98 60.7614
6127 1 17.9836 34.6756 61.3967
2461 1 19.5632 -0.0951684 61.7204
1593 1 18.5278 32.3129 62.1124
790 1 22.2879 35.6452 60.7471
4235 1 21.2308 35.2557 63.6177
2780 1 22.252 33.181 59.7628
319 1 24.6121 -0.357626 60.9577
3588 1 23.6612 34.5211 62.3117
2869 1 26.4422 -0.431958 58.8228
6775 1 26.3815 33.9735 60.7184
3250 1 28.6328 34.9028 59.7851
4644 1 25.8157 35.4798 62.7663
4067 1 25.3797 32.6747 63.3538
4629 1 27.4331 33.9157 63.4192
5735 1 30.7431 35.4974 58.8203
1757 1 31.62 31.9552 59.5387
3105 1 28.6352 33.126 61.8102
2396 1 29.3989 35.5484 62.2598
7272 1 31.4707 31.3092 62.2157
128 1 35.4924 33.053 61.6182
6926 1 34.6892 35.1507 62.2734
4288 1 33.1111 33.6108 60.756
4388 1 30.5574 34.1707 60.8893
1802 1 1.20396 1.82621 64.114
474 1 0.653171 -0.428343 66.161
60 1 1.36579 1.62328 67.4657
3115 1 -0.350563 1.80776 65.6737
2470 1 35.0217 -0.149124 64.425
6630 1 3.36587 1.75752 65.6587
2794 1 2.88484 -0.108882 66.9091
5752 1 5.34932 2.70987 63.0597
3987 1 5.04605 1.63396 67.0883
5580 1 4.78508 -0.565436 65.6531
240 1 6.92978 0.171627 66.9955
1173 1 8.1884 0.804866 64.1432
2629 1 5.87011 1.38873 64.9174
1761 1 8.97436 1.44939 66.1703
2707 1 10.5637 -0.262529 67.0538
2931 1 10.8887 0.754574 64.3273
1199 1 16.5001 1.08056 63.9709
2400 1 12.5893 0.384332 62.8313
1351 1 14.0442 1.16949 64.7557
6237 1 12.3667 1.13627 66.4904
6380 1 12.1785 3.10047 64.7657
6556 1 13.6186 3.13422 66.6846
884 1 14.5228 -0.352963 66.8598
6858 1 18.6043 2.85977 64.8717
3014 1 16.388 1.88574 66.4772
5085 1 17.0655 35.8385 65.7038
1035 1 18.7952 0.254661 64.0339
4146 1 17.9481 3.65344 67.2113
2849 1 16.5904 35.4592 63.3204
3364 1 18.6961 1.02508 66.6696
5439 1 20.9361 2.7556 65.5975
7902 1 23.396 2.86525 64.0349
1514 1 24.0968 2.19118 66.9104
7587 1 21.4135 1.11872 67.3827
5592 1 25.6191 0.320971 64.6158
5836 1 25.7296 3.9094 62.5466
5890 1 25.5512 4.04878 67.5205
2468 1 26.2549 1.1204 67.0241
3749 1 25.8035 2.75686 64.8585
4635 1 28.2315 0.783083 65.5426
7649 1 30.2254 1.73701 64.3641
7750 1 30.9034 1.33226 66.7304
6453 1 29.9897 36.0023 65.0295
4614 1 32.5101 2.45557 64.645
3714 1 27.9888 3.05987 64.0628
1588 1 35.4305 0.217487 67.3215
45 1 34.8586 1.88848 63.8105
4598 1 33.4167 1.30187 66.8082
4624 1 32.3223 35.8885 66.7625
1444 1 32.156 3.54072 62.6227
3518 1 0.907169 5.98078 63.8116
3567 1 -0.271968 3.51287 67.397
4140 1 0.994596 3.9719 65.3424
4136 1 2.926 6.04334 65.1502
4944 1 1.1768 7.71753 65.3025
5909 1 2.91215 3.93344 66.9355
5186 1 35.9575 3.80801 63.7295
3002 1 -0.063296 7.30715 67.6817
7600 1 35.9391 5.34656 65.4061
5906 1 2.58263 6.10158 62.4325
6310 1 3.61807 6.88755 67.2716
3030 1 2.94887 3.74964 64.116
1974 1 4.72632 5.26189 63.2376
3646 1 5.18228 3.81151 65.4413
4851 1 5.6613 5.12602 67.1624
3333 1 5.18221 6.71481 65.4242
958 1 7.21516 7.002 67.3353
2717 1 7.23069 2.68684 66.9222
6224 1 11.6222 4.93787 63.0295
945 1 7.6707 3.0641 64.6425
3017 1 9.87816 4.38265 65.0055
1041 1 10.7712 2.61141 66.8289
3172 1 7.5961 5.42069 64.9942
1256 1 8.71666 7.90096 63.4974
936 1 14.4904 5.20563 62.887
5825 1 13.5858 4.82966 64.9034
1666 1 11.8698 4.63358 66.9054
944 1 13.5092 6.79424 66.5602
1118 1 11.4864 6.31528 65.359
2230 1 15.298 4.89327 66.7569
7596 1 10.885 7.13865 62.9595
3039 1 15.5239 3.38083 64.3574
74 1 15.6606 6.83636 64.5185
1278 1 19.9214 4.40778 66.8569
3033 1 17.1615 5.24399 61.9012
398 1 17.542 4.9782 65.2085
2789 1 20.8757 3.20911 62.3192
1021 1 19.3206 4.67951 63.6281
1839 1 21.6961 4.58603 63.9518
4312 1 19.4524 6.40581 65.4028
5655 1 21.4988 5.59584 66.159
2228 1 21.1174 6.68789 63.9181
3836 1 21.6814 8.1427 65.815
6075 1 23.5563 6.65902 64.884
5039 1 23.7918 4.40008 65.9842
2077 1 25.035 8.57898 64.7036
4946 1 26.1088 5.19889 64.8599
6396 1 27.44 5.21673 67.1946
68 1 25.4684 6.826 66.8048
2775 1 31.1808 5.61688 63.7535
4613 1 30.4573 7.20816 65.9616
1503 1 28.761 5.34356 64.7243
851 1 30.7066 3.84317 65.5289
5027 1 28.795 2.93138 66.3831
6950 1 29.8921 5.31897 67.0852
1817 1 33.7251 5.02073 64.114
4560 1 34.2438 3.43036 66.066
7014 1 35.7272 7.52143 64.3215
7412 1 31.9819 3.28836 67.3973
5190 1 34.3554 6.81646 66.4041
3992 1 32.4122 5.54523 66.0394
1741 1 34.3348 4.99033 67.8376
76 1 32.4505 7.34672 67.5885
3737 1 0.851658 8.07458 62.641
719 1 2.27535 9.87443 63.945
7597 1 1.44257 10.9288 66.1924
5355 1 2.04836 9.02409 67.5485
6561 1 -0.203379 11.5137 68.133
7967 1 -0.0316623 10.3486 63.9826
7518 1 35.6959 9.14552 66.0522
5678 1 3.50131 8.84052 65.7458
3256 1 4.66744 10.9186 67.0562
3679 1 7.21921 10.2106 64.9648
232 1 5.46211 8.33924 67.214
5912 1 7.93759 10.0143 67.1327
4630 1 7.03631 9.36235 62.7076
4540 1 7.26989 7.85493 65.2745
3124 1 8.71737 12.273 65.235
2057 1 10.2723 6.70446 67.408
7167 1 9.56489 8.44549 65.8365
1833 1 10.4231 10.6896 67.2509
7759 1 13.1812 7.94999 64.4195
2878 1 11.811 8.54074 66.6356
224 1 13.0775 10.1822 65.5796
138 1 14.2646 10.6964 67.7027
6153 1 15.1815 8.65855 66.2179
6446 1 18.6967 7.05467 63.0154
1361 1 16.9376 8.91094 64.1309
6291 1 17.2884 7.16732 66.5423
6870 1 17.4654 9.5232 66.5537
4773 1 19.4433 11.1204 66.0836
5757 1 19.8603 9.43907 62.8111
4532 1 19.1161 8.75655 64.7883
158 1 23.2906 9.45222 63.3434
3743 1 21.386 10.7486 64.6124
5600 1 23.3917 8.94113 67.0672
1982 1 21.6351 10.5884 67.2237
3565 1 23.4427 11.3529 65.0981
7912 1 26.4825 9.06344 66.9643
3998 1 25.4182 11.0767 66.7301
2296 1 25.4066 10.9846 63.9394
6627 1 27.0381 7.49585 64.8703
4952 1 27.3363 11.5655 65.535
3514 1 28.5735 11.1121 62.8513
230 1 28.4278 7.32973 66.871
2440 1 30.8472 9.32908 63.5143
6564 1 28.4977 9.51781 65.1304
5035 1 28.1992 10.2347 67.6017
4384 1 30.0829 8.64781 67.9057
4236 1 32.1678 7.54044 64.1808
3337 1 33.8859 9.30323 64.095
2130 1 31.0669 9.30651 65.6905
466 1 33.5382 9.29818 66.8518
5911 1 34.6622 11.1995 65.519
7677 1 32.4221 11.0088 64.5466
1029 1 2.48288 12.7537 67.6354
1570 1 1.06265 13.5314 65.7452
2289 1 35.9604 15.0542 65.1119
311 1 3.27624 14.3147 63.5622
6884 1 -0.609478 12.5669 64.1674
2548 1 2.89291 15.0582 65.8636
3418 1 4.71037 10.6574 64.529
3587 1 5.78172 14.7824 64.9914
4628 1 3.99302 12.748 65.3723
481 1 7.49033 14.2348 66.3088
1518 1 6.91733 16.635 66.2142
2635 1 6.51752 12.2144 65.8274
6478 1 6.53033 12.5741 63.5746
48 1 11.3773 12.0834 65.4159
5498 1 9.7713 13.1289 63.4286
1725 1 8.48811 12.4024 67.6674
1266 1 10.4612 14.2331 66.1102
3266 1 14.8841 12.4743 63.0927
1098 1 13.3538 13.2387 64.9713
872 1 12.7694 11.7931 63.1583
6467 1 15.6721 10.6403 65.3539
5196 1 12.5852 12.5976 67.2778
1889 1 14.6996 14.8146 67.0863
2374 1 15.3255 12.5446 66.3814
5091 1 16.8471 10.7585 62.5508
1334 1 20.1352 12.5347 63.7994
152 1 18.1107 14.4421 64.7526
5754 1 17.066 12.5585 64.4253
2710 1 19.0866 13.7039 66.9008
6933 1 15.5162 14.5045 64.7183
7096 1 16.8721 13.9452 66.7218
3326 1 21.4518 11.4402 62.3902
2790 1 23.2963 15.4803 62.9158
549 1 21.3363 12.651 66.4424
3592 1 20.326 14.6907 65.4305
1911 1 23.6425 12.9848 66.8075
3598 1 22.0028 14.8286 67.3028
4225 1 22.4317 13.6571 64.586
3902 1 26.9959 13.3167 63.8204
3670 1 24.0741 13.2942 62.6936
3284 1 24.7333 13.6431 64.8247
3411 1 27.4395 14.0062 66.4288
5202 1 25.2466 14.991 67.1162
5260 1 30.1977 11.5288 64.5014
1434 1 31.7131 11.0038 67.2129
1566 1 29.5071 11.8756 66.6811
4463 1 29.3655 15.3608 67.3863
1279 1 29.2502 13.5099 64.7662
2956 1 31.0434 13.6235 66.7549
7266 1 31.635 14.4496 64.7238
7828 1 34.0117 13.6026 64.5833
7594 1 35.5042 14.3812 62.7439
5345 1 36.0946 13.423 66.8329
377 1 33.5279 15.0878 67.3718
1356 1 33.2526 12.8192 66.5824
7338 1 2.57712 18.5377 62.4977
1194 1 1.10174 15.5827 67.3091
7190 1 1.59687 16.7776 63.6986
6063 1 0.341098 17.0332 65.7866
7764 1 0.022608 18.788 63.7262
3840 1 0.072644 19.1873 66.7748
5169 1 3.97856 16.4148 63.6832
1175 1 6.45215 16.6996 63.7035
6316 1 4.52632 16.4828 66.4727
7120 1 6.91814 19.4542 65.4128
2558 1 4.96729 18.5523 64.908
3747 1 9.26163 16.2248 66.8333
5562 1 8.65223 15.2097 64.5862
7343 1 8.57959 17.8944 64.8696
7269 1 10.6405 16.927 65.2022
2393 1 8.47963 19.6014 67.0107
2959 1 10.3199 18.2463 67.3567
6159 1 11.4591 14.7187 63.9893
1430 1 12.2741 16.1902 66.7441
231 1 12.8357 18.1224 64.9804
3410 1 14.0748 20.1421 65.7132
3582 1 13.552 15.6943 64.8981
2611 1 14.3368 17.9519 67.1064
5572 1 16.4384 16.1266 66.3467
2068 1 17.4428 18.5351 63.1187
2533 1 19.7292 18.9897 63.8909
1195 1 18.8457 16.8456 64.9327
5511 1 15.2339 18.0822 64.8761
384 1 17.1721 18.4718 66.0369
7512 1 17.7204 20.7371 65.3532
4234 1 19.3578 16.3686 67.2166
7657 1 20.9632 17.0603 63.9916
1745 1 21.0314 17.3646 66.3087
3599 1 23.4917 15.8029 65.5128
1665 1 23.3525 17.8466 64.6628
4784 1 21.6824 19.3411 65.3929
1435 1 19.7003 19.4983 66.462
3023 1 25.7013 16.1757 64.1942
1117 1 26.8928 16.2851 66.5102
1187 1 24.9321 17.491 66.2783
1342 1 27.5683 18.0289 64.8067
6786 1 26.6421 19.7931 66.6932
1739 1 27.6213 15.3074 64.5003
1581 1 25.846 19.0506 64.0485
4692 1 30.7251 18.6624 65.2195
4398 1 29.5843 16.3545 64.9521
7350 1 28.7623 19.8751 65.8234
7972 1 29.0749 17.8755 66.8849
5203 1 31.4314 16.3796 66.1724
6877 1 30.6713 19.9989 67.0724
3270 1 35.1725 16.9014 63.037
2460 1 33.6088 16.1021 64.7405
4786 1 34.58 18.5742 65.0718
2222 1 35.0473 16.7111 66.8915
4954 1 32.7389 18.086 66.221
1427 1 1.93524 23.2604 62.2855
4718 1 1.07542 20.5972 65.1064
5834 1 1.57169 23.608 64.7115
6964 1 0.293901 21.3862 67.9546
3985 1 3.45895 20.2919 64.247
3821 1 2.39636 21.8359 66.2483
5676 1 -0.4736 24.2116 63.1757
483 1 3.67722 22.9642 63.948
309 1 8.68008 20.7153 64.6352
2876 1 2.55401 18.4389 65.3865
477 1 4.54929 22.6052 66.0732
4522 1 4.49265 20.1576 66.6287
1584 1 6.06438 21.3006 64.5786
3503 1 7.57032 21.7376 66.391
784 1 10.0809 23.0822 62.4621
7665 1 10.9645 19.7053 65.3909
1569 1 6.50455 24.1058 66.2814
7181 1 10.1817 22.1768 64.8039
4956 1 12.263 21.6924 65.3837
1034 1 9.96926 21.4774 67.2154
3837 1 12.1051 20.1454 67.3558
6287 1 11.7407 23.382 67.2596
3245 1 16.0938 22.8366 63.5028
5495 1 13.9137 21.92 67.6033
868 1 13.7748 23.8054 65.2599
3432 1 15.8317 20.3666 67.2459
4472 1 15.5249 22.1516 65.5003
7995 1 18.9736 21.2271 63.0318
2067 1 15.6853 23.8356 67.1687
6554 1 17.9096 23.1082 64.968
367 1 19.5226 23.507 67.2257
1417 1 19.6237 21.6201 65.825
3176 1 18.0176 21.7396 67.6022
3093 1 23.3721 19.8449 63.0277
935 1 21.9337 20.856 67.0394
1020 1 21.302 23.1789 65.5741
7663 1 21.8402 24.6594 63.9915
5898 1 24.117 19.644 65.8731
7012 1 23.4599 21.9525 64.5577
3193 1 25.3946 21.3285 63.496
629 1 25.233 21.7758 66.5317
5664 1 26.0371 23.5736 64.5556
2072 1 27.1978 21.7045 65.1287
2210 1 23.9949 23.4883 63.2477
1754 1 31.1791 23.8468 63.9208
6319 1 29.1579 22.1389 66.8783
2791 1 32.9464 21.2328 67.6581
1113 1 30.9179 21.731 65.381
3261 1 31.0418 23.8439 66.5683
2216 1 29.0187 23.6985 65.3495
381 1 29.2263 21.8573 63.8666
7911 1 35.2386 20.6206 64.0679
5277 1 35.84 22.3063 65.5377
6865 1 34.7423 20.4364 66.7177
6629 1 33.8322 23.2604 63.7065
619 1 32.948 20.6358 65.2834
54 1 33.2257 23.4124 65.8691
4948 1 34.8204 23.071 67.881
2389 1 3.01664 25.3631 63.8863
5013 1 -0.0536058 27.1205 64.3059
1669 1 1.36112 25.8845 65.8176
5433 1 3.63447 24.7368 66.4021
1679 1 3.88566 27.344 66.8494
7982 1 4.87873 27.9118 64.3367
6638 1 5.71419 26.4767 62.196
3271 1 5.40542 25.4188 64.6869
880 1 7.11246 28.5783 63.5149
2394 1 8.1943 23.462 64.6894
7990 1 6.88026 26.8502 66.2237
2058 1 10.0622 25.2355 63.4163
638 1 9.49257 23.7648 66.4167
7507 1 11.4781 24.9611 65.2815
6450 1 7.57489 25.9727 63.8371
5835 1 9.17756 26.1522 65.6378
5005 1 12.1575 23.3254 63.5431
957 1 11.5378 26.1519 67.1058
3673 1 16.0176 25.0938 64.703
387 1 14.2179 25.7132 66.5487
7885 1 13.7396 26.2361 64.2825
792 1 14.3009 24.747 62.6603
7747 1 13.6869 28.0278 66.2207
1425 1 18.0849 24.9536 63.5843
7115 1 18.6756 27.4369 65.1258
235 1 16.1969 27.3068 65.6436
1828 1 16.5196 26.9129 63.1727
6867 1 17.5895 25.3285 66.4914
1738 1 19.8751 25.3013 65.5739
5411 1 20.5387 27.592 67.0647
7897 1 21.3179 28.8853 64.4933
3584 1 22.2311 26.7482 65.4306
3507 1 24.7818 27.4366 65.3081
5751 1 23.7211 23.0309 67.2287
4316 1 21.6074 24.9533 67.0631
539 1 23.3886 29.4685 63.5961
6000 1 23.5847 26.8282 67.3018
3119 1 27.245 23.6823 66.8368
3512 1 23.6914 24.5912 65.2172
395 1 25.2836 24.9836 67.0496
1515 1 27.4087 25.4357 65.2995
703 1 27.4806 27.5026 64.2026
1597 1 31.3727 25.9718 62.6116
6682 1 29.5461 28.7438 64.1644
564 1 29.6775 26.2035 64.764
2312 1 29.4036 27.7105 66.4312
5109 1 31.3806 27.0867 67.3273
153 1 32.253 25.8954 64.9912
6479 1 34.3176 25.2112 64.7122
2529 1 33.4169 25.7212 67.2986
7574 1 35.5225 26.4778 66.711
6706 1 34.2317 27.8014 64.7998
6784 1 -0.54769 24.6061 65.7894
211 1 33.5859 28.3842 67.0694
7916 1 1.28116 28.3481 66.8292
5731 1 3.1697 29.7274 63.761
5817 1 1.14129 30.1388 65.0746
2309 1 2.51228 27.6383 64.7018
7352 1 0.886216 30.5334 67.472
1755 1 3.51486 31.9434 64.7463
4702 1 5.78108 29.0416 66.173
5747 1 3.22087 30.1508 66.6113
5684 1 5.61903 30.5408 64.2895
799 1 5.09023 31.4861 67.3516
4458 1 8.98405 28.6401 65.8019
6685 1 6.9953 30.5194 62.3878
5885 1 7.86912 30.6786 64.4018
2541 1 9.46885 27.5203 63.6322
4291 1 7.57883 31.0714 66.8168
6628 1 11.6289 29.1019 66.5272
4932 1 11.5966 27.2611 65.1294
1496 1 14.8394 29.0892 63.8127
1358 1 13.0027 29.8422 64.7602
877 1 10.5186 29.5984 64.2762
547 1 14.7819 31.5238 64.7746
2479 1 15.597 29.5195 66.205
552 1 17.0789 29.169 64.1145
3276 1 18.0468 28.8937 67.0613
7648 1 21.2856 32.7727 62.6621
4000 1 19.9771 31.8151 67.0089
3277 1 19.5903 31.9294 64.3166
3197 1 19.2169 29.5439 64.7967
5360 1 21.8643 31.0667 64.8214
3274 1 23.0172 29.3241 65.9577
1650 1 22.5316 31.8382 66.9197
3438 1 20.6684 29.6456 66.5949
6701 1 23.1791 32.124 63.2119
5824 1 25.7921 29.3684 64.7316
4547 1 25.4449 28.0606 62.7488
3828 1 24.8107 31.0912 65.6604
4640 1 26.9199 27.0407 67.0233
5582 1 25.2525 29.0123 67.0161
2700 1 27.2395 31.1229 67.6903
7022 1 27.1296 30.9913 64.0647
1905 1 28.1206 29.7065 65.6671
5650 1 31.616 28.0405 65.2638
3279 1 29.1243 29.2972 68.046
4304 1 30.7769 30.4845 64.9036
7999 1 29.0232 31.9528 65.5864
4448 1 31.2815 29.8281 67.0618
2395 1 35.6476 29.2331 66.5129
6621 1 35.0653 31.7104 64.8472
4558 1 36.0192 29.6062 64.2382
2786 1 33.1753 29.9071 65.1755
2544 1 34.0197 30.7206 67.2336
3434 1 33.0024 32.1814 65.6956
1501 1 0.779242 35.8271 63.8286
399 1 1.52729 32.3436 65.7054
7909 1 36.1074 33.8291 63.6132
2952 1 35.8224 32.6036 67.3934
7284 1 0.953304 34.2005 67.5806
1254 1 -0.442404 34.0223 65.7166
697 1 2.05412 33.6025 63.0354
5273 1 4.51211 34.4834 63.9558
1037 1 2.89843 32.963 67.4937
53 1 5.15289 34.5696 67.1544
1660 1 2.63969 34.521 65.3951
6705 1 5.65115 32.7611 65.1439
715 1 6.76553 35.2588 65.3812
3345 1 6.89873 33.1903 67.2938
1440 1 10.0916 31.6257 65.5104
2542 1 10.807 33.8056 66.2485
1959 1 8.42763 33.2775 65.7127
1973 1 9.40512 35.8467 65.5046
620 1 11.0554 31.5181 67.6747
1568 1 8.74657 34.8442 67.5891
3189 1 16.468 31.567 63.6273
2131 1 15.4604 33.7977 64.9027
3909 1 14.4053 35.8368 64.373
1924 1 16.0309 34.3298 67.2559
3426 1 12.2699 35.9141 65.4034
471 1 13.447 34.0456 66.8577
5838 1 15.3054 32.0973 67.0389
7264 1 12.9433 32.293 65.6213
2599 1 15.5311 33.718 62.3874
7356 1 19.3229 34.3408 63.5787
7348 1 17.4374 30.8351 65.9541
2783 1 17.6912 33.0957 64.8543
1917 1 20.5372 -0.141934 65.2994
2719 1 22.3097 33.4099 65.0476
1196 1 22.8649 0.572459 64.9355
4714 1 20.1569 33.9821 65.9076
3192 1 19.7708 35.6952 67.4436
1108 1 22.0428 35.0876 66.6032
1976 1 24.1668 -0.184984 66.7691
4306 1 23.8779 35.3017 64.3645
4468 1 24.3724 33.3411 65.971
696 1 26.1215 34.4584 64.994
1004 1 26.7872 32.6355 65.7663
5521 1 26.5783 35.5277 66.9375
1421 1 28.8578 -0.530327 67.3676
7278 1 28.4356 34.4032 65.4003
4459 1 30.2401 33.6366 63.4291
4867 1 30.6425 34.3259 67.1503
3437 1 30.8866 32.1077 66.7675
5106 1 27.6952 36.0867 63.8596
6220 1 31.6411 34.0412 65.1057
6637 1 28.4518 33.0293 68.0396
2399 1 32.7263 33.056 67.7802
50 1 32.7013 33.01 63.2215
4794 1 32.7432 0.109585 64.7219
2476 1 31.7605 35.4695 62.9032
5681 1 33.9832 34.3763 64.8157
4149 1 34.4416 34.6141 67.1255
7270 1 1.14005 -0.159595 68.9032
7361 1 1.64271 1.68753 71.0279
6559 1 35.8745 1.28715 69.3677
702 1 -0.302464 3.80379 71.0298
7364 1 1.47864 3.59054 69.1146
82 1 3.02973 -0.467493 70.8453
3994 1 24.8314 35.3343 68.8658
1894 1 6.46267 15.6189 54.2443
1189 1 3.4016 1.50205 68.9565
7899 1 4.88504 -0.363745 68.7536
7431 1 4.90419 1.41716 70.5381
5585 1 6.64317 1.72081 69.2518
7439 1 7.10865 -0.314754 70.9807
7571 1 5.00688 3.33265 68.9855
164 1 7.46887 3.5919 70.4499
4616 1 10.6206 -0.0988604 70.6421
961 1 8.86369 1.45061 70.9784
7353 1 10.7833 1.48478 68.6924
960 1 8.2898 0.22951 68.8446
4077 1 26.0864 33.3132 68.0245
6004 1 12.5259 -0.488901 68.5057
1762 1 12.5491 1.20273 70.4141
1684 1 14.3565 -0.406392 70.5574
4462 1 14.3333 1.46846 68.7386
4054 1 16.6209 -0.177211 68.1489
2484 1 15.8754 1.22602 70.6681
2564 1 17.793 1.41052 68.9485
2481 1 19.6763 3.3986 69.0499
3521 1 17.5571 3.43092 70.7384
2482 1 17.711 -0.253825 70.6371
3361 1 19.4787 1.93183 71.2579
4145 1 22.1126 3.74993 67.506
3519 1 19.7123 0.426341 69.0768
4081 1 21.6859 0.147915 70.7082
6704 1 21.4565 2.11365 69.5157
7501 1 23.707 0.85051 68.8386
1677 1 23.7714 1.94088 70.8722
4084 1 24.9793 -0.0670642 70.7459
4313 1 25.691 1.95791 69.0342
6391 1 27.0664 1.40744 70.7706
4404 1 27.0373 -0.196312 69.0692
2870 1 28.3738 1.61146 68.6168
4877 1 29.1624 0.343021 70.5856
4963 1 30.7482 -0.239219 69.0786
5761 1 30.8713 1.73061 71.476
6562 1 32.4967 -0.00871363 71.0687
6484 1 -0.109599 -0.139658 70.8871
3031 1 32.0372 1.71872 69.2527
7188 1 33.9742 0.137361 69.2562
5764 1 34.3138 1.98659 70.9785
2355 1 5.84973 25.2213 55.1834
716 1 20.1051 33.7042 68.6814
7569 1 1.03171 5.46754 67.0915
2610 1 1.78917 5.48116 70.7553
1115 1 3.3994 7.25295 70.6977
3751 1 3.58109 5.10557 69.2016
5976 1 -0.304814 5.21079 69.1353
3034 1 -0.265926 7.2712 70.265
2322 1 12.3276 28.9396 72.105
3204 1 21.4464 32.9645 70.268
161 1 3.15751 3.35516 70.9279
241 1 5.45791 5.25184 70.9771
7830 1 7.11373 5.12999 68.83
244 1 6.91335 6.98136 70.9122
484 1 5.25047 6.80962 68.9792
6234 1 8.64934 4.44031 67.251
964 1 10.6477 3.36444 70.8016
4873 1 8.63475 2.73892 68.7718
7360 1 9.07108 5.29392 70.7404
7358 1 10.3747 4.8781 68.9984
1044 1 10.9188 6.68963 71.0139
2951 1 8.76484 7.00028 69.0913
3429 1 12.2939 3.2019 68.9516
1764 1 14.2408 2.86531 70.6672
1841 1 12.711 4.81058 71.0326
2638 1 13.975 4.76347 68.6395
1111 1 22.7468 33.6492 68.2278
473 1 16.0052 3.12099 68.5145
2554 1 15.4574 4.66737 70.6402
2315 1 17.1452 5.19778 69.1212
3440 1 18.9439 6.72795 67.9475
2644 1 19.1661 5.24827 70.442
205 1 15.182 6.71265 69.0254
4318 1 17.6471 7.89242 70.6975
1736 1 21.4107 4.30824 70.9026
2550 1 21.1207 5.61001 68.7348
4161 1 23.1678 6.35708 67.2268
4241 1 22.9724 6.03151 69.9243
3441 1 20.8949 7.17279 70.3478
7586 1 25.4239 3.65571 70.7406
4317 1 27.3947 3.60959 69.3252
1994 1 23.346 3.70941 69.4252
47 1 25.1988 5.71642 69.07
5272 1 26.9601 5.37836 70.9322
4243 1 25.2364 6.96638 71.0093
6525 1 27.0145 7.40467 68.9558
4964 1 29.0542 2.81261 70.858
3096 1 29.7976 3.47612 68.7336
4159 1 28.8313 5.87496 69.1917
5841 1 30.6811 5.3915 70.9134
4393 1 30.8248 6.86516 69.3623
5044 1 28.6462 6.94507 71.095
3663 1 21.7469 35.7374 68.7254
5829 1 34.029 2.87884 68.637
6719 1 32.0899 3.68038 70.4276
7599 1 34.5141 4.52549 70.2506
5844 1 32.2521 5.32084 68.9178
1416 1 34.5283 7.09184 68.9207
6961 1 32.7637 7.07807 70.3889
4719 1 29.2883 8.9233 54.0009
6437 1 23.1476 14.6405 54.6179
4883 1 29.0262 35.1005 72.0625
6079 1 1.89239 6.84395 68.865
7521 1 1.28712 8.58766 70.6038
6801 1 1.7082 10.7448 69.9691
7524 1 3.44463 10.8127 71.3543
2708 1 -0.277892 11.9308 70.2614
7515 1 3.8116 9.08887 69.2146
321 1 5.396 8.80243 70.8464
324 1 7.03086 10.8029 70.9868
6145 1 5.7013 10.4222 68.8867
4871 1 7.23753 8.66926 69.3237
1121 1 9.39883 8.64336 70.8448
2239 1 10.3295 9.06323 68.7549
1124 1 10.6799 11.1296 70.8333
1201 1 8.89686 10.759 69.371
2716 1 14.0306 6.9525 71.0963
1193 1 12.1556 6.43425 68.6889
1921 1 12.5181 8.73914 70.7364
5200 1 13.5505 8.5313 68.1732
2799 1 13.704 10.735 70.3661
2050 1 12.1478 10.4406 68.7528
1120 1 16.4661 8.2885 68.4893
5346 1 16.4191 10.8644 68.8879
320 1 15.2717 9.00325 70.2957
3658 1 17.8416 10.8222 70.5392
2724 1 17.4055 11.6586 66.9739
4548 1 19.4206 8.61764 69.304
1335 1 19.2998 10.6205 68.4569
4232 1 21.7685 8.28843 68.5039
1840 1 19.7009 8.62948 67.1005
4397 1 21.1165 10.1713 70.0399
3444 1 23.1045 8.22677 70.7912
7032 1 26.5408 10.7039 69.2593
3594 1 23.8117 11.0151 68.5447
5822 1 24.8238 8.35555 68.9564
4244 1 26.73 8.77228 70.8007
5920 1 24.7583 10.2605 70.579
5271 1 28.6714 9.15064 69.7013
5921 1 30.8823 8.94004 70.6005
3919 1 30.3635 11.1741 68.9461
5128 1 28.7037 11.4637 70.2677
7172 1 29.8106 31.7419 54.1944
6239 1 32.7094 11.4805 70.7643
4959 1 32.5062 9.58495 69.3413
1818 1 -0.444894 9.30362 68.9749
6721 1 34.421 8.97377 70.3584
5982 1 34.2814 11.4195 68.3102
7682 1 1.73257 17.4813 71.9233
718 1 10.5633 23.4267 72.0686
1353 1 0.804106 13.6288 68.8718
7601 1 3.89491 12.2506 69.537
3430 1 1.63294 12.8504 71.1219
7748 1 3.39407 14.269 70.4449
4083 1 23.2106 34.912 70.4154
6212 1 6.41459 12.8986 68.6286
449 1 5.59473 12.7728 70.8817
5736 1 4.91105 13.7913 67.2669
7033 1 7.37738 14.2789 70.8787
3496 1 8.34471 14.7415 68.5547
7745 1 10.4516 12.8718 68.6279
1281 1 8.93668 12.8365 70.7447
1204 1 10.3206 14.421 70.4525
3682 1 19.6772 18.096 71.9333
2722 1 15.747 11.0504 72.2917
1036 1 12.3256 14.8169 68.696
7992 1 14.2882 12.7474 68.9921
3267 1 12.2095 12.9074 70.2019
2004 1 14.102 14.5809 70.606
3408 1 15.9105 14.5999 69.1979
2403 1 18.0778 33.2929 70.7303
2801 1 15.784 12.6177 70.7758
5677 1 18.1688 14.5822 70.4726
2079 1 17.7239 12.7168 68.9805
1270 1 20.0345 14.6107 68.7736
2958 1 19.7657 12.6945 70.323
6954 1 21.7151 13.0492 68.6918
1898 1 23.5328 14.5139 69.1085
3604 1 21.607 14.2024 71.035
4324 1 22.9392 11.893 70.6057
4622 1 27.2177 12.5097 68.1963
5121 1 25.0881 13.0239 69.2797
5198 1 27.0675 12.8851 70.6146
1985 1 26.8711 14.822 68.6268
476 1 25.5477 15.0502 70.7284
5661 1 16.1273 32.623 68.9564
6144 1 31.3835 15.2084 68.588
7359 1 29.3056 13.3152 68.5787
7109 1 30.4036 13.2641 70.3952
2370 1 28.2123 14.6439 70.3311
7038 1 -0.38241 15.5003 55.6774
5118 1 36.0746 14.7257 70.7289
5924 1 32.5451 14.4113 70.8596
234 1 34.8833 13.8016 68.8861
6078 1 32.4969 12.7306 68.9081
5274 1 34.3936 12.8137 70.871
6963 1 -0.0336941 18.7922 71.9362
5189 1 1.15114 17.6852 68.3268
7604 1 2.24553 19.9432 67.5583
6547 1 3.51913 17.9815 67.7889
6804 1 1.55515 15.812 69.8377
236 1 2.03098 19.035 69.8929
4722 1 22.8841 29.1674 72.0455
1996 1 3.54548 15.4578 68.4729
867 1 3.58074 17.0369 70.1364
1670 1 5.48181 17.5407 68.4995
7493 1 5.33025 15.4199 70.2813
404 1 6.74722 17.2622 70.3348
2071 1 6.42279 19.4855 67.8997
1284 1 5.95225 15.4054 68.2567
2161 1 10.5936 16.457 68.7401
5335 1 8.18322 17.5799 68.4943
1433 1 10.9061 18.1688 70.5705
1282 1 8.76293 16.3812 70.3784
4389 1 12.5741 18.0949 68.5078
4803 1 28.4899 30.9561 71.7739
2084 1 14.2577 16.3061 68.7467
2164 1 14.2117 18.0964 70.6411
2081 1 12.6202 16.4903 70.6845
3038 1 13.934 19.8646 69.055
3684 1 17.5848 15.948 68.3155
2773 1 16.17 18.2278 68.6233
7111 1 15.8921 16.4363 70.5726
2961 1 18.2628 19.6659 68.4214
3761 1 17.5764 17.9546 70.4237
2964 1 16.0461 19.7718 70.5648
3681 1 19.9704 15.9512 70.8921
1599 1 19.3946 17.5075 68.9286
2879 1 21.5973 16.7599 68.8032
7825 1 23.6199 16.6337 70.8367
3678 1 21.6408 17.7051 70.8808
2631 1 23.1106 18.0429 67.349
1734 1 19.2207 19.6155 70.514
1912 1 24.9473 16.842 68.8122
2946 1 25.0512 18.7444 70.7738
2227 1 26.6793 18.3053 68.5614
5598 1 26.941 16.9673 70.6656
5362 1 27.3184 19.7456 70.7247
804 1 10.4837 32.6609 70.5034
7041 1 30.8586 17.66 68.302
4957 1 28.7049 16.9119 69.0407
5284 1 29.179 18.1757 71.0949
6081 1 30.8555 16.027 70.7423
5197 1 -0.466251 15.7546 68.7202
6881 1 -0.523888 17.2354 70.4308
5194 1 33.2422 16.8826 69.2065
6084 1 32.1609 17.8722 71.0496
7681 1 34.4374 16.0382 71.0853
4878 1 35.1621 18.0515 68.6225
4156 1 1.24558 23.7886 67.2268
7761 1 1.83283 21.7043 69.5138
7037 1 -0.361474 20.9635 71.3444
7841 1 1.78145 23.9829 70.2304
793 1 -0.239042 22.922 69.7194
6529 1 4.0655 21.7465 70.628
4686 1 3.33384 22.8978 68.1816
7039 1 4.11251 19.9148 68.9321
7684 1 5.75593 22.1011 68.2019
2721 1 6.66221 21.9652 70.4603
402 1 5.66679 19.6509 70.3413
7118 1 7.6002 24.0516 68.5438
710 1 8.05147 19.3972 70.5064
5587 1 10.3415 19.5942 69.0356
7994 1 8.1175 21.4645 68.8144
7895 1 10.2234 23.2875 68.8373
2158 1 8.60485 23.3513 70.6826
7418 1 9.96571 21.5316 70.3817
3917 1 16.223 34.8501 70.5506
2888 1 12.6828 20.2607 70.876
3041 1 12.259 21.8567 69.3222
4148 1 14.3662 23.735 69.229
2163 1 14.5045 21.8064 70.7216
1505 1 12.8699 23.8744 70.8086
3281 1 20.1422 35.2436 70.2509
2884 1 15.9743 21.7712 69.047
2162 1 16.4281 23.548 70.7763
221 1 17.8523 21.9033 70.6114
7743 1 17.3185 23.7753 68.7023
2881 1 20.2117 21.2555 68.3131
6311 1 19.8079 23.2766 70.1314
81 1 5.1055 34.8424 70.5372
4636 1 21.2484 19.0892 68.2946
4564 1 23.7934 21.4544 68.9131
2310 1 23.1062 19.7309 70.6517
1354 1 21.4902 21.306 70.307
7204 1 23.7921 23.1644 70.5895
2160 1 21.9115 22.9681 68.6817
1039 1 18.1574 34.5753 68.8642
4080 1 24.5048 19.3105 68.3503
5364 1 25.4642 21.406 70.5497
5363 1 27.0106 21.3127 68.6864
2720 1 26.7013 23.2362 71.2224
5444 1 28.5916 23.2019 69.3459
3923 1 21.4132 27.1971 72.2523
4638 1 30.8229 19.7741 70.5441
5979 1 30.5785 21.7955 68.8085
314 1 29.0569 19.8025 68.6205
4791 1 29.1746 21.76 70.8567
6241 1 30.7102 23.3769 70.6251
4396 1 32.6154 23.3087 68.9092
7734 1 -0.0555475 19.7335 69.2849
6398 1 32.5155 19.0961 69.0468
6163 1 34.4221 19.0725 70.7969
7494 1 32.2063 21.5838 71.0664
6164 1 34.31 21.1745 69.5276
6553 1 2.67328 25.5984 68.3346
7914 1 -0.23242 25.3626 70.7506
725 1 3.68036 25.3439 70.5375
714 1 36.1165 28.0326 68.4955
7809 1 5.20068 24.5621 68.2052
7757 1 5.58892 23.8872 70.4105
7844 1 5.97796 26.8259 68.3704
2240 1 4.92409 27.0391 70.7027
2873 1 7.39688 25.4264 70.1623
4074 1 8.5476 26.12 67.9782
1364 1 10.0684 25.1845 70.7274
1439 1 8.60852 27.4078 70.2411
1521 1 10.1494 27.7677 68.0041
2473 1 12.4384 24.9911 69.0359
1990 1 14.5257 25.4569 70.9401
1674 1 12.0344 26.8883 70.3583
1832 1 13.749 26.7717 68.6763
3908 1 16.1969 27.0597 70.5764
1836 1 15.9335 26.0337 68.1901
4789 1 18.4566 24.9925 70.3877
2229 1 17.577 27.5876 68.8096
3921 1 19.4953 27.1775 70.4262
4150 1 19.3988 25.7138 68.5445
3200 1 21.6133 26.9075 68.9265
3118 1 21.611 24.8382 70.4
1015 1 23.8842 24.8765 68.7485
2469 1 23.0978 27.4669 70.4898
7505 1 3.1527 34.8246 68.4892
6710 1 25.4946 23.1472 69.044
77 1 25.071 25.3569 70.7236
4233 1 26.9936 27.149 70.5281
3427 1 27.085 25.243 68.6236
4872 1 25.3837 26.7857 69.0596
7762 1 1.98668 21.6752 71.9556
2477 1 6.80939 35.1319 69.1259
1269 1 29.1433 25.4921 70.2328
5523 1 30.5613 27.1826 70.3593
3835 1 29.0241 27.0445 68.7873
5507 1 29.192 24.9066 67.6323
7333 1 31.2724 25.122 69.0173
6244 1 32.8087 25.7187 71.1407
4003 1 25.4976 31.0975 71.9359
4240 1 0.354522 25.8254 68.5966
79 1 7.07729 32.5855 70.298
1516 1 34.3265 23.5798 70.5356
6321 1 33.009 27.2944 69.3999
5441 1 34.6726 27.3392 71.5288
6545 1 34.9525 25.1299 68.9972
1998 1 5.23112 32.9595 69.0064
7921 1 1.62752 27.0513 70.7795
7433 1 3.44531 27.4145 69.1059
7502 1 1.56359 28.998 68.9886
7201 1 1.36831 30.7109 70.9042
6560 1 3.22591 30.936 69.2702
721 1 3.47735 29.1478 70.8285
7198 1 -0.354187 30.794 69.1991
7918 1 -0.356808 28.8366 70.9827
2557 1 7.77152 28.42 68.421
5680 1 5.02887 29.0572 68.6231
724 1 6.83257 28.6054 70.6125
7924 1 5.0339 31.2775 70.5739
7516 1 6.99414 30.7153 69.3213
1604 1 14.3922 32.9963 70.8911
6557 1 9.54424 29.8962 68.0575
1524 1 10.7318 28.5919 70.5062
2634 1 11.7718 30.5324 69.9375
801 1 9.02806 30.0278 70.5734
7674 1 12.9764 32.8843 69.292
5344 1 13.2636 30.7276 67.0709
4797 1 14.3726 28.5533 70.4362
959 1 13.8939 30.812 70.15
7836 1 12.5914 28.9377 68.5336
1027 1 15.2278 28.5761 68.1677
4798 1 14.2886 34.6839 69.0022
1920 1 18.2145 33.1996 67.173
2404 1 17.1612 30.4924 68.3716
4078 1 16.0176 30.5304 70.4698
951 1 17.8222 29.2865 70.5192
7517 1 19.2763 31.2933 69.492
366 1 19.3308 29.1306 68.9004
1681 1 12.6039 34.6788 70.5734
1513 1 21.6306 30.662 68.8118
2795 1 23.2384 28.9841 68.4898
3201 1 21.1609 29.2451 70.4166
4001 1 23.163 30.9171 70.4082
7019 1 10.9951 34.3225 68.3326
2551 1 25.4882 29.0705 70.3926
3924 1 26.939 28.8544 68.6507
3990 1 24.6696 31.3963 68.3184
7029 1 26.8136 31.2647 69.9388
800 1 9.01491 32.4826 68.5848
7196 1 31.1432 30.9203 70.9739
5032 1 29.4007 31.1439 68.907
4121 1 28.8771 29.0394 70.3058
4724 1 31.2682 29.1266 69.2472
6642 1 34.4966 7.101 71.9583
6401 1 34.7925 30.4931 71.4373
3590 1 32.2968 31.2876 69.074
6324 1 32.8549 29.206 71.0042
6855 1 34.3654 29.5036 69.3625
3522 1 19.585 10.1929 71.8358
881 1 9.06501 34.6788 70.151
1896 1 1.46232 32.3747 69.138
5759 1 35.8504 34.7089 69.0575
7199 1 -0.283093 32.7081 70.8319
879 1 3.37068 33.0225 70.7918
7281 1 1.42124 34.3488 70.0378
4402 1 23.6556 14.2355 72.0938
2803 1 18.1262 12.3925 72.1161
2003 1 13.5742 12.654 72.2368
3044 1 18.2047 23.7091 72.2785
2326 1 10.9781 30.9389 72.0996
5843 1 32.5943 5.4753 72.0338
5602 1 30.3572 32.9014 72.306
723 1 7.10516 26.6288 72.2259
6242 1 30.6694 25.6262 72.125
4802 1 26.9338 32.67 72.2339
5443 1 28.9225 23.9759 72.2284
2883 1 17.9265 16.2857 72.1546
1 1 6.98282 30.5313 72.0792
4882 1 25.1537 34.5513 72.2154
3363 1 21.6498 1.97201 72.2191
6322 1 30.6365 29.1162 72.239
4723 1 24.7415 27.2922 72.2108
5922 1 30.3064 10.6631 71.975
3762 1 17.5056 19.6808 72.2364
83 1 6.58852 34.3825 72.0558
4162 1 23.4657 3.73856 72.186
3282 1 19.6179 -0.332925 72.2607
4881 1 26.8586 -0.336653 72.212
2242 1 12.3734 25.4398 72.3177
3843 1 21.6487 23.1837 72.0881
5923 1 32.7783 9.09013 72.0264
2643 1 17.3654 5.42416 72.1641
6962 1 34.4512 21.888 72.1445
1363 1 10.7326 20.2672 72.2011
7047 1 -0.166167 23.4037 72.0804
5666 1 26.8957 29.1679 72.1921
5041 1 27.2095 3.38667 72.0764
3283 1 21.5237 34.8492 72.1433
5122 1 27.0386 10.7042 72
323 1 7.18168 8.77459 72.2495
163 1 6.83469 1.94713 72.2466
7763 1 3.18548 19.4191 72.0105
6643 1 -0.51155 5.6225 72.2803
6723 1 -0.387215 9.10791 72.214
883 1 10.4387 34.208 72.2341
2311 1 23.6566 16.9434 53.9391
5908 1 25.2533 3.52563 53.9951
7511 1 13.3729 8.84416 54.0075
7575 1 35.4268 7.21204 53.9456
5970 1 20.6768 3.80412 53.9173
4639 1 8.27889 31.5183 54.0807
1104 1 2.7621 27.0786 54.017
3492 1 22.1912 7.21618 54.2198
