ITEM: TIMESTEP
400000
ITEM: NUMBER OF ATOMS
8000
ITEM: BOX BOUNDS pp pp pp
-5.8674182434459254e-01 3.6136740824347577e+01
-5.8674182434459254e-01 3.6136740824347577e+01
-1.1734836486891851e+00 7.2273481648695153e+01
ITEM: ATOMS id type x y z
7366 1 2.7181 0.37868 1.82142
6568 1 0.950491 0.666368 0.146831
6647 1 1.23118 2.4565 1.96139
7445 1 2.74656 2.70283 -0.0953216
7368 1 4.3076 0.322916 -0.10863
166 1 6.13419 0.632698 1.42713
245 1 6.76553 2.92369 -0.516204
7447 1 4.58041 2.50452 1.52559
247 1 8.01481 2.54353 1.43911
168 1 8.40146 0.288872 -0.0180269
966 1 9.98751 0.631526 1.7399
1045 1 9.92742 2.28588 -0.253528
968 1 11.6594 0.182012 -0.237743
1047 1 12.1609 1.90912 1.51701
1766 1 14.1883 0.71862 1.60476
1849 1 14.3376 2.42886 0.106247
1847 1 15.8387 2.57121 1.99002
1768 1 16.1368 0.723786 0.205288
2566 1 17.5905 0.613058 2.20145
2568 1 19.3011 0.713187 0.13986
2645 1 17.5899 2.55179 0.482797
2647 1 19.3483 2.59714 2.02559
2649 1 17.4838 2.45864 3.93971
3366 1 21.0255 0.28752 2.14414
3368 1 22.9401 0.70396 0.250224
3447 1 23.0051 2.26923 2.31198
3445 1 21.0778 2.35096 0.706571
4245 1 24.8394 2.07474 0.53583
4166 1 24.8423 0.233591 2.05791
4168 1 26.3365 0.534226 0.318433
5045 1 26.7924 2.44029 2.06598
6498 1 36.0248 33.7952 12.4111
4962 1 28.3697 2.7533 0.322371
4966 1 28.2098 0.610735 1.4233
2319 1 32.2822 0.796292 2.05638
5599 1 30.4849 0.533576 0.351902
5047 1 30.4296 2.89269 2.00415
5845 1 32.0085 2.77904 0.350936
6645 1 -0.434868 2.6296 0.518717
6566 1 36.0712 0.607369 1.87526
5847 1 34.0668 1.21998 0.461762
5846 1 34.3931 2.78883 1.95996
7446 1 2.57934 4.65227 1.59435
6648 1 1.0301 4.60439 -0.338903
6727 1 0.887163 6.26105 1.7295
7525 1 2.6502 6.4638 -0.0848147
6646 1 -0.554727 4.23877 2.35553
7527 1 4.72101 6.27496 1.67083
7448 1 4.68804 3.99205 -0.356457
246 1 6.59811 4.27442 1.39952
325 1 6.54282 6.1277 -0.14948
327 1 8.68545 6.21775 1.60142
248 1 8.51819 4.3599 -0.247219
1046 1 10.2318 4.0699 1.37295
1125 1 10.5531 6.03675 0.0745722
328 1 8.31629 8.15924 -0.033592
1126 1 10.0878 7.97665 1.56021
1048 1 12.2881 4.43962 0.123792
1127 1 12.1748 6.0087 1.91624
1848 1 16.0799 4.33196 0.164586
1846 1 14.1096 4.19035 2.08116
1927 1 15.758 6.03092 2.13087
1925 1 14.0891 5.88747 -0.160902
2646 1 17.4288 4.50044 2.01136
2648 1 19.409 4.59458 0.178757
2727 1 19.7243 6.2604 2.16136
2725 1 17.5813 6.25153 0.220823
2729 1 17.4511 5.96199 3.80884
2652 1 19.3598 4.53055 3.89804
3525 1 21.3679 6.1086 0.105511
3446 1 21.117 4.25844 2.08201
3448 1 22.7815 3.92437 0.41371
3527 1 22.8865 5.78559 1.75999
4325 1 24.8282 5.99023 0.299569
4246 1 24.6843 4.15273 1.65749
4247 1 26.5365 4.2367 0.245764
4327 1 26.8793 6.08314 2.10347
5125 1 28.5503 5.89448 0.00412253
5046 1 28.614 4.58602 1.94722
5048 1 30.2387 4.43638 -0.0793211
5127 1 30.358 6.24328 1.78652
5925 1 32.3963 5.83276 0.0213656
5849 1 32.3174 4.50896 2.02202
5052 1 30.6599 4.53877 3.74275
5848 1 34.4073 4.16297 0.318851
5927 1 34.1275 6.1884 2.07099
6725 1 35.7706 6.28649 -0.0550537
6729 1 35.8966 5.9628 3.92074
7526 1 2.76197 8.45356 1.52394
7605 1 2.80857 9.90982 -0.412164
6728 1 0.923499 8.12364 -0.0738572
6807 1 0.900127 9.86047 1.71036
6808 1 0.847549 11.6327 0.254075
7607 1 4.64748 9.59212 1.8205
7528 1 4.63134 8.11304 -0.144027
326 1 6.55318 7.9212 1.47277
405 1 6.77445 10.224 -0.0732266
7608 1 4.75035 11.3957 0.190786
406 1 6.315 11.506 1.90585
7532 1 4.90195 7.93275 3.4053
407 1 8.40734 10.0572 1.69794
1205 1 10.1228 10.0416 -0.218945
408 1 8.57231 11.6724 -0.323413
1207 1 12.1579 9.40703 1.7444
1206 1 10.7455 11.4206 1.71688
1128 1 11.7941 8.24382 -0.207155
1926 1 13.9215 7.87808 1.41315
2005 1 13.9738 9.80268 -0.268095
2007 1 15.5493 9.75609 1.60657
2008 1 15.6256 11.5817 0.131724
1928 1 15.8358 7.94269 -0.125042
2726 1 17.6154 8.12317 2.15618
2728 1 19.6656 8.27575 -0.0697152
2805 1 17.7105 9.81863 0.216405
2807 1 19.6493 10.0121 2.0498
2808 1 19.5023 11.6587 0.0872722
3526 1 21.427 7.89872 1.82418
3605 1 21.519 9.92681 0.0322264
3528 1 23.1491 7.96032 -0.168366
3607 1 23.0254 10.2368 1.62422
3606 1 21.3377 12.0558 1.92961
4405 1 24.7471 9.89357 0.149048
4326 1 24.5326 7.97462 1.81265
4328 1 26.5857 7.7895 0.465077
4407 1 26.8252 10.0738 1.40459
4408 1 26.4581 11.9256 0.0434613
4406 1 24.9141 11.7137 2.11808
5205 1 28.5288 9.27469 -0.133321
5126 1 28.484 7.81679 1.60044
6003 1 30.378 7.80734 -0.0588791
5207 1 30.3822 9.51951 1.91016
5926 1 32.0331 7.77396 1.72956
6005 1 32.0157 9.80233 -0.136741
5928 1 33.8689 8.14058 0.0879003
6726 1 35.6673 7.99823 1.58
6007 1 33.7356 9.62701 1.98637
6805 1 35.9213 9.89376 0.11301
6806 1 35.4905 11.2252 1.73023
6008 1 33.6002 11.3259 -0.0614881
7606 1 2.96641 11.6002 1.88905
7685 1 3.08302 13.1591 0.0239538
6887 1 0.741869 13.59 1.6706
7686 1 2.62582 14.8736 1.93102
6888 1 0.672384 15.1007 -0.203862
7687 1 4.64823 13.2163 2.0282
485 1 6.34721 13.3274 0.138205
7688 1 4.72244 15.001 -0.0856314
486 1 6.89812 14.6887 1.72133
488 1 8.00061 14.9692 -0.0751646
487 1 8.51432 13.0955 1.669
1285 1 10.3222 13.4574 -0.106954
1286 1 10.2613 14.9403 1.56583
492 1 8.63361 15.0965 3.51716
1208 1 12.1821 11.2002 -0.123799
6641 1 13.7169 11.4963 1.67342
1287 1 12.1437 13.6309 2.00828
2085 1 13.5822 13.1141 0.0377531
2087 1 15.7813 13.6401 1.66002
2086 1 13.8132 15.2058 1.99437
1288 1 12.1211 15.1351 0.246308
2806 1 17.4385 11.75 1.94622
2088 1 15.5645 15.5104 0.0594323
2887 1 19.1278 13.5046 1.83949
2885 1 17.59 13.5221 0.0440393
3685 1 19.0342 15.5734 -0.0991859
2886 1 17.2672 15.6708 1.76572
3608 1 23.1473 12.0632 0.234671
3602 1 20.6344 13.6687 0.227094
3687 1 23.0912 13.9442 2.04703
3688 1 23.0831 15.2922 0.0432164
3686 1 21.055 15.3283 1.76778
4485 1 24.7917 13.6024 0.0927198
4487 1 26.5568 13.4328 1.90846
4486 1 24.7222 15.6058 1.82579
4488 1 26.7257 15.6346 0.00803791
5285 1 28.5695 13.2706 0.0287347
6002 1 29.9614 11.451 0.108562
6006 1 31.9833 11.6717 1.7881
5206 1 28.1926 11.7182 2.02938
5286 1 28.3306 15.0655 1.72965
5287 1 30.3113 13.5537 1.79807
5288 1 30.3953 15.0223 0.13251
6086 1 32.3479 15.6033 1.84368
6085 1 32.1573 13.4121 0.164384
6885 1 35.7572 13.14 0.396289
6087 1 33.8835 13.4252 1.77199
6088 1 33.7834 15.2515 -0.0767998
6967 1 35.5238 15.1614 1.66467
7766 1 0.82614 16.9254 1.94737
6886 1 2.80985 16.6442 0.058577
6965 1 2.45196 18.9079 1.73797
6968 1 0.790236 18.8385 0.0317314
7768 1 4.39641 18.9443 0.0551863
7765 1 4.18837 16.8339 1.6957
565 1 6.29527 17.1883 -0.570143
566 1 6.29341 19.1512 1.32324
7847 1 4.34201 18.5844 3.49906
567 1 8.67204 16.7855 1.5372
568 1 7.98957 18.7742 0.0329014
563 1 10.2674 17.0706 0.0234205
1366 1 10.066 18.8501 1.19063
1365 1 12.1878 18.9561 0.0624781
1367 1 11.8902 16.9987 1.70043
2165 1 13.8176 17.2022 -0.0287201
2166 1 13.8227 18.8871 1.78509
5779 1 34.3909 35.4372 12.7414
2168 1 15.4808 18.973 -0.0981926
2167 1 15.5741 17.2665 1.8286
2965 1 17.4466 17.3866 0.219876
2967 1 19.3203 17.5064 1.79594
2968 1 19.4154 19.3426 0.175766
2966 1 17.376 18.7434 2.11224
3765 1 21.0187 17.1086 -0.0339296
3767 1 23.0228 17.2399 1.47128
3766 1 21.2419 19.1655 1.66275
3768 1 22.7098 19.2483 -0.318234
4566 1 24.4528 19.0712 1.80621
4565 1 24.7047 17.1948 -0.19077
4567 1 26.6644 17.0533 1.70371
4568 1 26.302 18.8388 0.0509497
5365 1 29.054 16.9424 -0.0395945
5366 1 28.5081 18.6885 1.50695
5367 1 30.0646 16.9863 1.96172
5368 1 30.1759 19.0075 -0.342069
6165 1 32.3533 17.4209 -0.353591
6166 1 31.7368 18.6902 1.53591
6167 1 33.9449 17.3042 1.62372
3829 1 35.7751 17.0184 -0.0713645
6168 1 34.2664 19.0679 0.195056
6966 1 35.9155 18.8608 1.86206
7845 1 2.47693 20.6781 0.0982411
7846 1 2.71147 22.6508 1.85904
7850 1 1.14432 20.8084 1.91291
7048 1 1.03369 22.6394 -0.195744
646 1 4.63508 20.5999 1.94999
7848 1 3.96174 22.4137 -0.018888
645 1 6.16998 20.8278 -0.22012
648 1 5.98894 22.6202 1.63752
647 1 7.94357 20.7753 1.71148
1448 1 8.01558 22.3634 0.136879
1445 1 9.92995 20.9026 -0.0540322
1446 1 9.91326 22.6622 2.02654
1447 1 11.5549 20.9343 1.55121
2325 1 11.7083 22.8209 -0.149096
2245 1 14.0775 20.7975 0.187668
2246 1 13.5365 22.5812 1.90481
7703 1 4.60378 13.2643 16.6262
2247 1 15.5841 20.5274 1.97727
2248 1 15.8861 22.5353 0.198215
3045 1 17.3215 20.7416 0.360082
3047 1 19.3071 20.6088 1.97178
3048 1 19.1973 22.6147 0.193846
3046 1 17.3845 22.946 2.08499
3845 1 21.223 21.1754 0.160176
3846 1 20.9808 22.8753 2.3357
3847 1 22.9996 20.9982 2.05188
3848 1 23.0418 22.6375 -0.266827
4642 1 24.6466 20.7643 -0.141096
4646 1 24.7815 22.808 1.92741
4647 1 26.3693 20.9937 1.58688
4648 1 26.6645 23.0467 0.307847
5445 1 28.4995 20.8051 0.0315854
5446 1 28.7691 22.4077 1.52852
5447 1 30.2973 20.646 1.58136
5448 1 30.6169 22.5512 0.134415
6246 1 32.2982 22.3053 1.7492
5704 1 34.1311 33.806 14.5544
6245 1 32.1493 20.3226 0.156491
7045 1 36.0046 20.9464 0.104834
6247 1 34.231 21.085 1.82866
6248 1 34.0401 22.8416 0.00242181
7046 1 36.0203 22.7605 1.36903
7925 1 2.62508 24.4831 -0.257195
7926 1 2.80175 25.9934 1.65447
7127 1 0.792378 24.5614 1.85379
7128 1 1.00758 26.477 -0.137006
7928 1 4.40015 25.973 -0.198528
7927 1 4.72173 24.3162 2.12542
7923 1 6.0771 24.2067 0.0671469
726 1 6.11444 26.3675 1.45701
5 1 6.28295 28.314 -0.103957
727 1 7.97143 24.3491 1.90051
728 1 8.02499 26.2296 0.183913
1525 1 9.69362 24.2182 -0.0740867
1526 1 10.0721 26.0117 1.60137
3 1 9.80641 27.9824 0.151985
1528 1 11.795 26.2646 0.0757509
1527 1 11.6382 24.3209 1.83995
807 1 13.5939 24.3082 0.356754
2327 1 15.5367 24.6415 1.83996
1609 1 13.7309 26.7314 1.99203
2328 1 15.6213 26.4414 0.211254
1607 1 15.583 28.0392 1.79568
3125 1 17.2935 24.4664 0.407189
3127 1 19.0444 24.7756 2.28714
3126 1 17.1943 26.3481 2.03176
3128 1 19.1767 26.2752 0.388015
2405 1 17.1924 28.421 0.199467
3925 1 21.3047 24.0391 0.164361
3926 1 21.2192 26.2786 2.13569
3927 1 22.9324 24.3851 1.91337
3928 1 22.7414 26.0501 0.148631
4726 1 25.033 26.1198 1.9827
4725 1 25.0864 24.5394 0.235013
4727 1 26.8694 24.4683 2.12696
4728 1 26.6289 26.1727 0.0187838
5526 1 28.7634 26.5786 2.12269
5525 1 28.6834 24.6535 0.823058
5527 1 30.7601 24.1134 1.8221
5528 1 30.3335 26.2238 0.171638
6325 1 32.2476 24.6551 0.202135
6326 1 31.9162 26.066 1.95769
6327 1 33.9449 24.2831 1.99981
7125 1 35.8479 24.4956 -0.297285
6328 1 34.0615 26.1517 -0.044172
7126 1 35.9211 26.0478 1.73355
6405 1 35.5142 28.4364 0.0133978
6407 1 0.856436 27.9977 1.73815
7205 1 2.82911 28.084 0.316169
7206 1 2.46848 30.1167 1.94326
6408 1 0.420499 29.9127 -0.0359295
6487 1 0.721127 31.876 2.30329
7285 1 2.40128 31.8621 0.0934542
7289 1 2.71942 31.9233 3.7901
6412 1 0.756757 29.9747 3.68612
7207 1 4.71776 28.4184 1.51783
7208 1 4.04741 30.0642 -0.129579
6 1 6.48961 30.1766 1.73333
85 1 6.0488 31.5459 -0.29045
7212 1 4.62372 30.4086 3.53731
7 1 8.30834 28.211 1.86603
8 1 8.3564 29.9279 0.374212
806 1 10.6592 29.9743 1.61785
885 1 10.0855 31.8335 0.110598
87 1 8.3175 31.8311 1.70321
805 1 11.7733 27.9082 1.6035
808 1 12.3229 30.1567 -0.27031
1605 1 13.9615 28.4549 0.0240834
1606 1 13.2998 29.7378 1.95256
887 1 11.7542 32.0423 1.85096
1687 1 15.521 31.5859 2.24161
1608 1 15.5461 30.0413 0.534795
2407 1 19.1605 28.2964 1.56222
2406 1 17.2074 29.7482 2.21115
2408 1 19.1228 30.0703 0.209535
3207 1 22.9178 28.0006 1.87762
3205 1 21.2688 27.9185 0.376989
3206 1 21.2149 29.9293 2.30057
3208 1 23.2357 29.7055 0.175754
3287 1 22.8873 31.5826 2.22397
4007 1 26.7188 28.2179 2.18821
4005 1 24.6239 27.8663 0.471589
4006 1 25.0735 29.8197 1.86541
4008 1 26.7356 29.7021 0.164811
4085 1 24.804 31.5662 0.292896
4805 1 28.5774 27.7635 -0.0909262
4806 1 28.9074 29.3334 2.08375
4807 1 30.7088 27.9429 1.9067
4808 1 30.5749 29.7837 0.363857
4885 1 28.807 31.4988 0.521224
4887 1 30.3988 31.7163 2.25631
5606 1 32.0992 30.0181 2.28113
5685 1 31.9442 31.6608 0.449747
5605 1 32.3974 28.082 0.114921
5607 1 34.1099 28.0128 1.8241
5608 1 34.0668 30.1379 0.277325
6406 1 35.7411 30.4041 2.02715
5687 1 33.8747 31.8694 2.01
6567 1 0.792921 35.2584 1.94088
7365 1 2.48133 35.4126 -0.157795
7286 1 2.80862 33.4812 1.61888
6488 1 0.736947 33.4817 0.113616
6502 1 35.8373 33.7397 15.9336
7287 1 4.69733 31.8249 1.59305
165 1 6.1074 35.5647 -0.487021
7367 1 4.40649 35.3198 1.639
7288 1 4.39274 33.6884 -0.35476
86 1 6.51134 33.9959 1.35156
88 1 8.19045 33.3929 -0.230187
167 1 8.38106 35.7732 1.91247
965 1 10.0932 35.4933 0.168796
886 1 10.095 33.6892 1.9157
969 1 10.1889 35.6216 3.4924
1685 1 13.5892 31.9946 0.312451
888 1 12.0932 33.8573 0.398859
967 1 12.0949 35.5675 1.92952
1765 1 14.0784 35.1549 0.37024
1686 1 13.6565 33.687 2.10376
1767 1 15.8269 35.5884 2.02159
2402 1 17.334 31.7309 0.112543
2487 1 19.2684 31.7508 2.1356
1688 1 15.7465 33.3186 0.480148
2565 1 17.8391 35.4222 0.42551
2567 1 19.4409 34.9706 2.25343
2486 1 17.458 33.4787 2.08553
2488 1 19.3247 33.5546 0.413221
3285 1 20.9716 31.7543 0.513796
3286 1 21.0979 33.3507 2.52825
3367 1 22.9905 35.2365 2.41472
3365 1 21.1849 35.463 0.36665
3288 1 22.598 33.7401 0.820341
4087 1 26.9525 31.3999 1.99466
4086 1 24.7985 33.2647 2.41623
4165 1 24.7349 35.2646 -0.0399874
4169 1 26.5912 35.3864 1.90016
4088 1 26.1713 33.5747 0.234532
4886 1 28.3596 33.4943 1.93577
4167 1 28.1121 35.1713 -0.0828991
4972 1 30.4425 35.5412 1.87656
4888 1 30.0465 33.7492 0.579339
4967 1 32.2962 35.8781 0.219489
6485 1 35.6781 31.8343 -0.196507
5686 1 32.1463 33.695 1.85376
6565 1 35.5721 35.6594 0.136321
5767 1 34.0501 35.7689 2.0419
5688 1 33.6855 34.0836 -0.014135
6486 1 35.1549 33.5605 1.7566
7449 1 3.16446 2.45666 3.44125
6572 1 1.26382 0.372492 3.65156
7370 1 2.74517 0.510087 5.29145
6576 1 0.996502 0.630044 6.92846
6651 1 1.43203 2.38844 5.16595
7453 1 3.18014 2.41046 6.93842
249 1 6.28986 2.58052 3.13717
7372 1 4.90445 0.400298 3.55309
7451 1 5.10885 2.08657 5.15928
7376 1 4.63712 0.264971 7.11539
170 1 6.90294 0.315941 5.57032
253 1 6.08582 2.49332 7.35428
1049 1 10.1388 2.33767 3.78539
172 1 8.39162 0.609431 3.56569
176 1 8.27308 0.748581 7.0214
251 1 8.3092 2.44484 5.03406
970 1 10.1707 0.753633 5.51414
1053 1 9.9727 2.42833 7.17978
972 1 12.1163 0.538039 3.38233
976 1 11.9707 0.663917 7.48135
1051 1 12.2669 2.46395 5.56235
1770 1 14.0689 2.55225 3.95532
1772 1 15.6263 0.863871 3.64029
1853 1 13.7838 0.720457 5.74235
1776 1 15.8355 0.475735 7.32465
1851 1 15.7811 2.31616 5.85656
1135 1 13.756 2.4746 7.44679
2572 1 19.6466 0.573117 3.8394
2570 1 17.6737 0.915658 6.10918
2576 1 19.2813 0.449735 7.36008
2653 1 17.5545 2.43481 7.67277
2651 1 19.4604 2.69379 5.74462
2571 1 19.3301 35.2906 5.71117
3449 1 21.0302 2.57114 4.00769
3372 1 22.8382 0.579317 3.74576
3370 1 21.1755 0.370475 5.85864
3376 1 22.9359 0.616296 7.22078
3453 1 21.4543 2.29034 7.36542
3451 1 22.7171 2.52453 5.50814
4172 1 26.7237 0.53708 3.99329
4249 1 24.7528 2.61833 3.94383
4253 1 25.2753 2.47582 7.53215
4176 1 24.7601 0.882226 5.46466
4251 1 26.7558 2.63022 5.61
4096 1 26.7837 0.492237 7.20005
5049 1 28.5979 3.10231 3.83086
5766 1 30.3188 0.598491 3.66852
4321 1 32.3862 2.56669 3.97563
5053 1 28.5738 2.74721 7.33198
4970 1 28.8218 1.01727 5.33047
4976 1 30.5022 0.688862 7.43284
5051 1 30.5016 2.56364 5.56454
5770 1 31.7484 0.592693 5.28311
5769 1 32.2541 35.7022 3.50062
5853 1 32.2172 2.38531 7.55685
5772 1 34.0837 1.08556 3.65632
6649 1 -0.304813 2.37092 3.70657
6570 1 -0.498687 0.832929 5.34399
5776 1 34.0769 0.820917 7.13566
6653 1 35.9959 2.42255 7.29629
5851 1 34.1251 2.26296 5.57123
7529 1 2.95744 6.42818 3.55618
6652 1 1.39098 4.66785 4.17804
7450 1 3.48222 4.35712 5.28074
7533 1 2.75934 5.86202 6.85273
6656 1 1.28938 3.96051 6.92007
6731 1 0.659343 6.12158 5.74726
7452 1 4.61734 4.46066 3.24604
329 1 6.81706 6.07631 3.09502
7531 1 4.73446 6.28285 4.95559
7456 1 4.83451 4.59124 7.28581
250 1 6.50304 4.30567 5.26077
333 1 6.54068 6.15081 7.06882
331 1 8.02721 5.94786 5.37908
252 1 8.42093 3.96933 3.02848
256 1 8.2285 3.96744 7.09838
1129 1 10.3036 6.26933 3.38971
1050 1 9.74379 4.4928 4.94114
1133 1 9.7916 5.90434 6.84281
1056 1 11.6066 4.44136 6.57565
1052 1 11.6551 4.268 3.60194
1131 1 11.4667 6.19632 5.1814
1852 1 16.0114 4.1436 4.08067
1850 1 14.0725 4.33886 5.74952
1933 1 13.9561 6.46483 7.15121
1856 1 16.0779 4.39662 7.4147
1931 1 15.5822 6.17234 5.23906
1929 1 13.7763 5.85103 3.66611
2650 1 17.6532 4.26989 5.58695
2656 1 19.2477 4.44118 7.61088
2733 1 17.3464 6.14274 7.36644
2731 1 19.148 6.28803 5.52408
3529 1 21.4407 6.0159 3.92135
3452 1 23.0072 4.21648 3.79999
3450 1 21.157 4.74292 6.03847
3533 1 20.7824 6.54114 7.28987
3531 1 23.1111 6.33709 5.70992
3456 1 22.8686 4.88257 7.36458
4250 1 24.6085 4.38341 5.69908
4329 1 24.5406 6.06946 3.64063
4333 1 25.2307 6.58799 7.28853
4252 1 26.2319 4.30219 3.85045
4331 1 26.4931 6.24764 5.0882
4256 1 26.45 4.67538 7.24009
5133 1 28.2923 6.07844 7.32867
5129 1 28.6363 6.25971 3.82174
5050 1 28.8064 4.52905 5.51703
5056 1 30.4888 4.52586 7.4072
5131 1 30.4583 6.27292 5.55362
5850 1 32.2446 4.82148 5.71056
5929 1 32.223 6.47427 3.6601
5933 1 31.8731 6.4905 7.41774
5856 1 34.0097 4.35678 7.21213
5852 1 34.0817 4.49836 3.97922
6650 1 35.72 4.05718 5.53002
5931 1 34.0752 6.16309 5.50593
6733 1 35.6036 6.30156 7.23222
6732 1 1.04446 7.84786 3.4482
6736 1 0.983288 8.04553 7.19932
7609 1 2.91941 9.83158 3.41049
7530 1 2.83775 8.38002 5.35783
6811 1 0.951233 9.74606 5.39781
7613 1 2.58447 9.80906 7.23065
6816 1 0.621047 11.7762 6.88624
7610 1 2.77083 11.4614 5.10274
409 1 6.81279 9.98427 3.68942
7611 1 4.93874 9.71612 5.29886
7536 1 4.69697 7.92789 6.97876
330 1 6.75793 8.04689 5.46131
413 1 7.10225 9.65564 7.20851
332 1 8.32177 8.01593 3.30168
336 1 8.59865 7.97146 7.31114
411 1 8.69617 9.86123 5.54218
1209 1 9.91797 10.0838 3.5164
1130 1 10.0596 7.88281 5.29633
1136 1 10.2844 9.97254 7.42382
5604 1 12.1664 7.9851 6.94482
1211 1 11.7136 9.69219 5.30938
1132 1 11.8098 7.99954 3.35302
1932 1 15.735 8.15517 3.71869
2009 1 13.9326 9.7584 3.52616
1930 1 13.8233 7.85416 5.18345
2013 1 13.5956 9.88151 7.12974
2011 1 15.6489 9.82116 5.31897
1936 1 15.7844 8.03393 6.75906
1212 1 12.0362 11.4011 3.76095
1216 1 11.8003 11.7999 7.43511
2732 1 19.5273 7.84559 3.71338
2730 1 17.4403 8.2397 5.25285
2736 1 18.917 7.99593 7.04493
2809 1 18.0749 9.89076 3.60319
2811 1 19.3077 9.99488 5.32597
2813 1 17.4977 9.97703 7.33351
2812 1 19.7169 11.8733 3.48756
3609 1 21.4603 9.88931 3.71113
3532 1 23.035 8.3107 3.91258
3530 1 21.124 8.17703 5.5652
3613 1 21.4325 9.70692 7.49789
3611 1 23.1914 9.92355 5.70195
3536 1 23.1766 7.98 7.35883
4330 1 25.1927 7.97754 5.44771
4409 1 24.849 9.66217 3.76077
4332 1 26.6658 8.02224 3.34438
4413 1 25.072 9.66578 7.28468
4411 1 26.5996 9.87945 5.50629
4336 1 26.9899 8.01559 7.38022
4412 1 26.3149 11.7198 3.6748
4416 1 26.4803 11.7686 7.37307
6009 1 32.066 9.93237 3.61633
5130 1 28.5065 7.75732 5.51403
5209 1 28.0819 9.75655 3.65518
5132 1 30.2839 8.04213 3.72988
5213 1 28.4294 10.056 7.29629
5136 1 29.9388 7.97057 7.47926
5211 1 30.014 9.81367 5.44354
5210 1 28.0067 11.6418 5.44973
6010 1 32.0797 11.5966 5.45474
6013 1 31.835 9.76425 7.25899
5930 1 31.9741 8.10399 5.20905
6809 1 35.9771 9.66617 3.41601
5932 1 33.8498 7.96813 3.75033
6813 1 35.6119 9.53033 6.9781
6730 1 35.7499 7.88846 5.42647
6011 1 33.9574 9.71643 5.18765
5936 1 33.6514 8.41716 6.86352
6012 1 33.8566 11.6981 3.52032
6016 1 34.0564 11.63 7.11782
6812 1 0.59301 11.8893 3.31392
7689 1 2.51951 13.3692 3.5723
7693 1 3.0031 13.3329 7.3085
6891 1 0.643867 13.1373 5.04315
6896 1 0.851967 15.3107 6.97503
6892 1 0.633007 14.9727 3.81147
7769 1 2.38496 15.0682 5.12653
7616 1 4.71102 11.4497 7.04647
410 1 6.43146 11.514 5.59076
7612 1 4.60555 11.31 3.67587
7692 1 4.73495 13.4126 5.07067
489 1 6.87915 13.127 3.49193
7691 1 6.65115 13.5843 6.75386
7771 1 6.45131 15.2422 4.92784
7767 1 4.5851 15.6299 3.72861
7696 1 4.59444 15.3738 7.38731
412 1 8.44825 11.6756 3.86385
1210 1 10.3865 11.6031 5.5126
416 1 8.24314 11.5433 7.38353
1289 1 10.1815 13.2071 3.51328
491 1 8.24373 13.6853 5.25321
1290 1 9.95054 15.5458 5.39571
1291 1 10.0272 13.683 7.15618
490 1 8.22349 15.6947 7.09253
1292 1 11.7559 15.5127 3.79314
2010 1 13.6042 11.6566 5.30573
2012 1 15.8737 11.608 3.49484
1296 1 11.6687 15.4497 6.93574
2089 1 11.7873 13.8368 5.47599
2006 1 13.8619 13.3343 3.6283
2091 1 15.6153 13.39 5.30984
2093 1 13.6688 13.3642 6.76493
2092 1 15.8669 15.1531 3.64761
2090 1 13.8478 15.4848 5.27562
2096 1 15.2644 15.4971 7.37619
2889 1 17.7003 13.5108 3.61336
2016 1 15.9239 11.8075 7.02161
2816 1 19.676 11.3031 7.32849
2810 1 17.9109 12.1364 5.34536
2891 1 19.4202 13.4988 6.0172
2893 1 17.4325 13.7488 7.41363
2896 1 19.5055 15.4255 7.40429
2892 1 19.5654 15.189 3.58437
2890 1 17.5085 15.3597 5.63368
3612 1 23.198 11.6548 3.65594
3616 1 23.1313 11.5757 7.35031
3610 1 21.4044 11.4438 5.48195
3693 1 21.0628 13.4452 7.83427
3689 1 21.5395 13.3637 3.73001
3691 1 22.7427 13.5078 5.68596
3696 1 23.1473 15.6012 7.62427
3692 1 22.8396 15.6967 3.75608
3690 1 21.1354 15.3533 5.58692
4410 1 24.8516 11.8769 5.6636
4489 1 24.4348 13.8014 3.99842
4493 1 24.7745 13.6149 7.26212
4491 1 26.7616 13.4741 5.30662
4490 1 24.6917 15.3248 5.73691
4496 1 27.1586 15.2975 7.47938
4492 1 26.3551 15.3885 3.45688
5212 1 30.4345 11.6007 3.46095
5216 1 30.179 11.7619 7.2608
5292 1 30.049 15.3717 3.58081
5289 1 28.6058 13.5271 3.53215
5293 1 28.3147 13.2374 7.13546
5291 1 30.442 13.4487 5.29899
6089 1 32.0861 13.4795 3.33494
5290 1 28.5586 15.511 5.49655
6093 1 32.4256 13.7109 7.255
6090 1 31.9138 15.1398 5.28461
6810 1 35.4342 11.6846 5.29693
6889 1 35.5561 13.3005 3.19119
6091 1 33.8919 13.5761 5.01182
6893 1 35.7258 13.2058 6.95911
6890 1 35.5719 15.1808 5.33969
6096 1 34.0728 15.5753 7.34804
6092 1 33.8132 15.4832 3.60889
4961 1 2.70538 17.2187 3.38255
6972 1 0.90645 19.0213 3.76725
6971 1 0.962076 17.0396 5.40839
7690 1 2.39765 17.0397 7.18652
6976 1 0.855034 18.9499 7.18519
7770 1 2.60906 18.7779 5.30192
7772 1 4.42711 17.2044 5.56512
569 1 6.42453 17.0619 2.6931
573 1 6.17059 17.1693 7.10272
7776 1 4.55913 19.1212 7.30937
570 1 6.27153 18.6558 4.94732
1369 1 10.0378 17.3765 3.49952
572 1 8.07335 18.8034 3.17862
571 1 8.23041 17.0302 5.30028
576 1 8.08744 18.8312 7.38552
1373 1 9.98414 17.4062 7.24073
1370 1 9.88902 19.0475 5.35947
1372 1 11.6131 19.2486 3.45021
2169 1 13.3821 17.4199 3.75229
1376 1 11.8271 19.035 7.49875
1371 1 11.5604 17.4134 5.1787
2171 1 15.6897 17.2462 5.32465
2173 1 13.4761 17.2548 7.22885
2170 1 13.5497 18.9091 5.47563
2172 1 15.8281 19.0581 3.84915
2969 1 17.6484 17.028 3.63909
2176 1 15.6036 18.7926 7.37584
2972 1 19.1244 18.9719 3.737
2971 1 19.0204 17.2113 5.61455
2973 1 17.1289 16.9855 7.6366
2970 1 17.4602 19.2175 5.80856
2976 1 19.3787 18.96 7.47803
3772 1 22.8498 18.5708 3.398
3769 1 20.7921 16.9792 3.70541
3773 1 21.0065 17.3651 7.40997
3771 1 23.0363 17.264 6.00715
3776 1 22.7627 18.9346 7.93989
3770 1 21.2779 18.9509 5.47906
4569 1 24.9382 17.3894 3.60554
4572 1 26.7754 18.9896 3.45479
4573 1 24.816 17.1799 7.53676
4570 1 24.5849 19.0544 5.36911
4571 1 26.5981 16.7645 5.27105
4576 1 26.686 18.5671 6.99313
5296 1 30.2165 15.412 7.32576
5373 1 28.647 17.2061 7.23813
5370 1 28.5928 18.7271 5.07429
5372 1 30.3573 18.9808 3.41951
5369 1 28.2947 17.2149 3.56277
5371 1 30.3056 17.2868 5.27515
5376 1 30.2473 19.2236 7.25241
6170 1 32.171 18.9242 5.52247
6169 1 31.952 17.1133 3.49957
6173 1 31.901 16.966 6.9926
6969 1 35.9412 16.9777 3.70542
6172 1 33.7511 18.8367 2.92597
6171 1 34.0344 17.0311 5.3043
6973 1 36.0782 17.2681 7.39075
6176 1 33.9665 18.6023 6.96097
6970 1 36.1132 18.6883 5.60945
7052 1 0.635035 22.7013 3.60997
7849 1 2.56788 20.9144 3.76904
7853 1 2.34224 20.4776 7.21835
7051 1 0.721262 20.8799 5.47121
7055 1 0.847584 22.564 7.18378
7929 1 2.43378 22.3069 5.6809
649 1 6.29036 20.6328 3.63097
7852 1 4.55236 22.7444 3.54991
7851 1 4.25472 20.9549 5.61082
653 1 6.33549 20.8977 7.18516
650 1 6.40652 22.3336 5.36766
7856 1 4.65822 22.6362 7.43262
652 1 7.9763 22.4845 3.37592
1449 1 9.823 20.7746 3.58144
656 1 8.18305 22.54 7.60201
651 1 7.90163 20.2311 5.44108
1453 1 9.89632 20.8773 7.39427
1450 1 9.97135 22.7453 5.46062
1452 1 11.6707 22.2994 3.55152
1451 1 11.733 21.0993 5.56642
1456 1 11.5119 22.5947 7.33923
2249 1 13.8258 20.9338 3.61476
2253 1 13.449 20.7639 7.39133
2250 1 13.6226 22.6737 5.19717
2252 1 15.5102 22.713 3.54866
2251 1 15.3584 20.7279 5.46176
2256 1 15.1849 22.403 7.02227
3049 1 17.4392 21.0034 3.76104
3052 1 19.0325 22.8079 4.00288
3051 1 19.3869 20.9104 5.46059
3053 1 17.5736 20.9211 7.28714
3056 1 19.4126 22.2818 7.58424
3050 1 17.2354 22.4736 5.56376
3131 1 19.1477 23.8701 6.07999
3852 1 23.156 22.5778 3.69489
3849 1 21.2654 20.706 3.52328
3851 1 21.0191 20.7401 7.5157
4649 1 23.115 20.7738 5.41621
3856 1 23.1318 22.4322 7.36893
3850 1 21.2027 22.6201 5.69143
4652 1 26.5183 22.1278 3.72185
4645 1 24.6581 20.7179 3.80828
4653 1 24.8273 20.5434 7.09419
4650 1 25.0913 22.5436 5.40137
4651 1 26.5555 20.5086 5.55877
4656 1 26.6881 22.5534 7.13424
5450 1 28.6341 22.2896 5.71287
5453 1 28.5334 20.6864 7.28175
5449 1 28.7398 20.5954 3.63213
5452 1 30.2146 22.5886 3.56841
5451 1 30.5734 21.1234 5.54803
6253 1 30.6217 22.4262 7.59674
6249 1 32.0599 20.5465 3.21175
7053 1 35.7676 20.689 7.23174
6174 1 32.5234 20.513 7.37289
6250 1 32.3301 22.5693 5.08556
7049 1 35.87 20.4041 3.59355
6251 1 33.4955 20.7863 4.95041
6252 1 34.2095 22.6853 3.63965
7050 1 35.5938 22.2778 5.46325
6256 1 33.9424 22.4773 7.28748
7131 1 2.50168 24.4075 3.47192
7132 1 0.98758 26.4695 3.52973
7933 1 2.88674 24.446 7.46349
7930 1 2.74667 25.862 5.52893
7056 1 0.872939 24.4357 5.24782
7136 1 0.945229 26.1342 7.26059
9 1 6.04499 28.4866 3.44017
7932 1 4.39343 26.2902 3.35247
7931 1 4.44135 24.335 5.3968
7936 1 4.40468 26.3059 7.2563
729 1 6.40802 24.5873 3.9954
733 1 6.55442 24.1572 6.94613
730 1 6.37623 26.2692 5.33666
732 1 8.19847 26.2521 3.1247
1529 1 9.86337 24.4142 3.5926
736 1 8.08011 26.4474 7.195
731 1 8.33331 24.2217 5.40922
1530 1 9.8213 26.3131 5.43794
1533 1 9.83316 24.4422 7.18658
809 1 10.0666 27.9516 3.65418
1536 1 11.7279 26.2001 7.2872
1532 1 11.7252 26.1475 3.55263
1531 1 11.668 24.2811 5.64989
2329 1 13.4433 24.6439 3.69213
2331 1 15.4557 24.5269 5.7856
2333 1 13.5082 24.374 7.49724
2330 1 13.9371 26.3064 5.50828
2336 1 15.6632 26.1976 7.50674
1610 1 13.5795 28.2275 4.02888
811 1 11.7776 28.0349 5.54727
2332 1 15.4632 26.0213 3.83579
3129 1 17.3259 24.3724 3.96004
3132 1 19.1892 26.4478 4.02529
3133 1 17.403 24.7229 7.69619
3130 1 17.4777 26.3591 5.34423
3136 1 19.197 26.62 7.14536
3929 1 21.1024 24.7122 4.07515
3932 1 22.9976 26.3028 3.86355
3930 1 20.9658 25.9849 5.90848
3933 1 21.1977 24.1712 7.51314
3931 1 22.9883 24.4273 5.4266
3936 1 23.1362 25.8992 7.4001
4732 1 26.9496 26.4319 3.82201
4729 1 24.7585 24.5029 3.86715
4733 1 25.103 24.2373 7.31291
4730 1 25.1709 25.8072 5.63704
4731 1 26.9274 24.2367 5.16864
4736 1 26.8519 25.9414 7.51577
5529 1 28.9028 24.6249 3.42779
5530 1 28.4662 25.9867 5.6913
5533 1 29.0444 24.297 7.50893
5531 1 29.8965 23.8994 5.59752
5532 1 30.4451 26.3275 3.81965
6333 1 30.4371 26.4174 7.43579
6329 1 32.3482 24.2367 3.66847
6330 1 32.2542 26.29 5.49031
5456 1 31.9421 24.4583 7.34914
5609 1 32.1629 28.1654 3.98734
6332 1 33.8708 26.1151 3.47026
7129 1 35.9544 24.4574 3.48999
6331 1 34.0386 24.0549 5.57543
7130 1 35.7282 26.0312 5.49878
6336 1 34.1039 26.1813 7.34085
7133 1 35.8683 24.4582 7.45636
5611 1 34.2071 28.2565 5.80218
7213 1 2.33811 27.9741 7.05917
7209 1 2.86457 28.1189 3.50695
6411 1 0.46652 27.9361 5.74236
7210 1 2.82668 29.7769 5.27587
6416 1 0.895026 30.0395 6.97567
6491 1 0.780845 31.7675 5.50497
7293 1 2.73769 31.8351 7.02853
7211 1 4.72942 28.0522 5.44533
7216 1 4.06123 30.1342 7.3315
10 1 6.0978 30.1834 5.41101
13 1 6.31844 28.3768 7.08759
93 1 6.54783 31.7372 7.30863
89 1 6.71354 32.2327 3.31897
7291 1 4.53491 32.0752 5.61335
12 1 8.50224 29.8215 3.48473
813 1 9.98123 27.8363 7.05191
11 1 7.96034 28.1488 5.35082
810 1 10.0199 29.9697 5.37577
893 1 9.86874 31.7588 6.74559
16 1 7.98935 30.0285 6.68597
803 1 9.59775 31.7579 3.5241
91 1 7.84012 31.9123 5.34363
816 1 11.8119 30.1611 6.99194
889 1 12.1004 31.8265 5.32881
812 1 11.9306 30.1601 4.03675
1689 1 13.6828 31.9653 3.6707
1613 1 13.6387 28.6081 7.29054
1611 1 15.67 28.2946 5.86294
1693 1 13.8946 30.1718 5.65909
1691 1 15.6119 31.8953 5.29824
1612 1 15.5041 29.7365 3.85391
1690 1 13.5475 32.1998 7.01965
1616 1 15.5155 30.1493 7.47949
2409 1 17.2409 28.0745 3.65332
2413 1 17.4128 28.2763 7.36497
2411 1 19.1338 28.1881 5.3171
2410 1 17.6107 30.2451 5.96495
2412 1 19.2529 29.9506 3.66869
2416 1 19.2511 30.0175 7.60213
2493 1 17.2929 32.0272 7.46197
2489 1 17.3418 31.5773 3.7347
3209 1 21.0349 28.0377 3.95181
3211 1 22.7542 27.8318 5.52152
3213 1 21.3277 27.9561 7.51843
3210 1 21.0381 29.785 5.62969
3212 1 23.4998 29.6696 3.653
3216 1 22.8373 29.8582 7.34771
4009 1 25.1645 28.092 4.03463
4012 1 26.9435 29.9765 4.24272
4809 1 26.7142 27.9247 5.81016
4013 1 24.7967 28.1101 7.12513
4010 1 24.7775 29.9396 5.64367
4011 1 26.6858 30.1773 7.63564
4093 1 24.773 31.5478 7.45696
4812 1 28.6751 27.9806 4.36812
4813 1 28.5643 28.6315 7.65935
4811 1 30.763 28.0491 5.93086
4810 1 28.6557 29.8585 5.79847
5610 1 30.2094 29.859 4.01709
4816 1 30.288 30.396 7.34976
4893 1 28.4774 32.1262 7.45391
5693 1 32.3404 32.1984 7.62692
4891 1 30.3606 31.9611 5.57713
4889 1 28.1792 31.9691 4.06963
6409 1 35.8525 27.9731 3.47215
5616 1 32.1614 30.2444 5.88518
5613 1 32.4966 27.9967 7.39373
6413 1 35.9513 28.0704 7.56262
5612 1 34.2226 29.7242 3.63919
6410 1 35.9652 29.9142 5.35918
6414 1 34.3794 29.8214 7.42654
5691 1 33.7305 31.8922 5.98066
6489 1 35.335 31.8492 3.98944
5689 1 32.1246 32.1083 3.82747
6493 1 35.9056 31.7195 7.09288
6492 1 0.692896 33.4977 3.82411
7369 1 2.86776 35.2225 3.56501
6571 1 1.4117 35.454 5.67534
7373 1 3.05578 35.6095 7.65116
7290 1 2.67968 33.5041 5.28453
6496 1 0.942458 33.8535 7.39417
6573 1 35.8957 35.8297 7.25572
169 1 6.44977 35.578 3.77663
7292 1 4.80435 33.6412 3.6009
7371 1 4.58895 35.2739 5.28506
173 1 7.07507 35.4617 7.37132
7296 1 4.72988 33.7255 7.70167
90 1 6.42978 33.7995 5.62152
92 1 8.35854 33.8754 3.6504
96 1 8.25613 33.3246 7.29596
171 1 8.29985 35.1999 5.40826
973 1 9.72588 35.6662 7.07571
890 1 9.97446 33.892 5.32771
892 1 11.9173 33.7125 3.63585
896 1 11.4764 33.5549 7.51606
971 1 12.2176 35.592 5.25974
1692 1 15.4771 33.5705 3.77751
1771 1 15.7217 35.5636 5.26219
1773 1 13.858 35.3651 7.29621
1769 1 14.0947 35.8798 3.53545
891 1 13.623 33.7836 5.05479
2491 1 19.1527 31.7651 6.01286
1696 1 15.581 33.6257 7.04172
2492 1 18.9825 33.2972 4.07808
2573 1 17.379 35.2145 7.47698
2569 1 17.9585 35.4931 4.08935
2490 1 17.3014 33.6518 5.56859
2496 1 19.3583 33.4741 7.46719
3291 1 22.9911 31.4572 5.20029
3293 1 21.3818 31.7242 7.35138
3289 1 20.888 31.5103 4.12579
3369 1 20.9988 35.479 4.17855
3371 1 23.188 35.256 5.64718
3373 1 21.1393 34.9417 7.15314
3290 1 21.2157 33.1956 5.73837
3292 1 23.0674 33.3369 3.93255
3296 1 23.07 33.6201 7.33116
4091 1 26.6767 31.8073 5.83197
4089 1 25.1485 31.7862 4.08129
4170 1 24.8975 35.2044 3.83941
4173 1 24.762 35.4053 7.42333
4092 1 26.6286 33.6883 3.7168
4090 1 24.7765 33.2709 6.0112
4171 1 26.4886 35.3311 5.4011
4095 1 26.8139 33.912 7.17628
4892 1 30.2975 33.6029 3.55657
4890 1 28.5364 33.676 5.52099
4969 1 28.4172 35.65 3.76407
4973 1 28.566 35.5847 7.03441
4971 1 30.0953 35.4918 5.14902
4896 1 30.3556 33.4985 7.43615
6569 1 35.7595 35.4696 3.66061
5773 1 31.7733 35.7278 7.3065
5690 1 32.1853 33.7813 5.51387
5692 1 34.0523 33.8522 3.90599
5771 1 33.9951 35.712 5.42512
6490 1 35.7709 33.8859 5.60017
5696 1 34.0245 34.2081 7.39516
7374 1 3.20335 0.751633 8.94329
6580 1 1.05679 0.543443 10.8314
6655 1 1.10727 2.24524 8.90358
7457 1 2.74311 2.62208 10.9993
6659 1 0.967362 2.73863 12.8451
7377 1 4.78709 0.700513 10.8546
174 1 6.49838 0.679962 8.96861
7455 1 4.38412 2.66541 9.21265
257 1 6.52833 2.43783 10.649
178 1 6.76388 0.438313 12.6672
255 1 8.38357 2.80531 8.8109
180 1 8.44545 0.710127 10.9137
974 1 9.83817 0.586987 8.71336
1057 1 10.2174 2.35857 10.5007
1059 1 11.731 2.30567 12.3003
1055 1 11.9994 2.74957 8.93995
980 1 11.8431 0.610158 9.98017
1774 1 14.1719 0.712428 9.07083
1778 1 13.5964 2.39418 10.5463
984 1 13.9308 0.728338 12.7067
1855 1 15.7609 2.64378 9.28874
1780 1 15.5779 0.639394 11.013
2580 1 19.234 0.773256 11.1528
2574 1 17.9386 0.491065 9.14607
2655 1 19.3334 2.37608 9.24501
2657 1 17.359 2.44709 10.8626
2578 1 17.5831 0.566897 12.5005
3374 1 20.9122 0.262349 8.91668
3380 1 22.9986 0.351522 10.8189
3455 1 23.2045 2.77891 8.91533
3457 1 21.5175 1.99822 10.6529
3378 1 21.032 0.383224 12.7539
3459 1 22.9983 2.3934 13.0301
4174 1 24.7251 0.627433 8.83755
4180 1 26.664 0.697793 10.9471
4255 1 26.5893 2.52172 9.4341
4257 1 24.4837 2.10317 10.9769
4259 1 26.65 2.29668 12.7262
4178 1 24.8869 0.318891 12.5915
5057 1 28.4993 2.66053 11.0257
4974 1 28.6014 0.91533 9.18257
4980 1 30.7255 0.624568 10.9682
5055 1 30.1906 2.75849 9.13506
5857 1 32.2814 2.76256 10.8708
5778 1 32.3941 0.467376 12.8449
5059 1 30.6434 2.76855 12.9439
5774 1 32.3462 0.770237 8.905
5780 1 34.2461 0.718415 10.7749
6574 1 35.999 0.599921 9.11457
6657 1 36.1227 2.49615 10.8799
5855 1 34.4839 2.47695 9.19919
5859 1 34.1026 2.61866 12.3246
6578 1 -0.535679 0.91858 12.4342
7454 1 2.88282 4.37446 8.91077
6660 1 1.0128 4.34273 10.7988
7537 1 2.86861 6.49148 10.9162
6735 1 1.16375 6.13499 8.95025
7458 1 2.65697 4.57462 12.8399
7460 1 4.68938 4.67482 10.755
7535 1 4.78519 6.26046 8.93969
254 1 6.47567 4.19668 9.15851
337 1 6.67728 5.86691 11.1177
258 1 6.84333 4.18997 12.4446
7539 1 4.53771 6.81378 12.5939
260 1 8.55447 4.08224 10.6684
335 1 8.15842 6.32543 9.02659
1054 1 10.3246 4.33636 8.87027
1137 1 10.3775 6.1978 10.7728
339 1 8.67761 6.36167 12.4667
1219 1 12.1215 7.9844 10.7934
1060 1 10.0633 4.34298 12.6639
1857 1 11.8226 4.31162 10.6328
1140 1 11.9518 5.91296 8.6322
1860 1 15.7453 4.33301 10.8321
1854 1 13.9704 4.30858 8.79759
1937 1 13.7358 6.06516 10.8109
1935 1 15.7291 6.32488 8.8757
2660 1 19.4437 4.25233 11.1014
2654 1 17.4223 4.64279 9.24341
2735 1 19.255 6.27825 9.38994
2737 1 17.2389 6.29053 11.0529
2658 1 17.5444 3.95525 12.6565
3454 1 21.0958 4.32216 8.65176
3460 1 22.9084 4.37768 10.9446
3535 1 23.4697 6.40673 9.49184
3537 1 21.2706 5.86244 10.532
4337 1 25.2583 6.41995 11.2836
4254 1 24.9706 4.34824 9.53659
4260 1 26.7059 4.39036 11.1987
4335 1 26.7223 6.28471 9.41768
4258 1 24.6912 4.30608 12.7937
5054 1 28.1999 4.35418 9.26398
5137 1 28.0335 6.40294 11.0806
5060 1 30.3561 4.33246 10.7923
5135 1 29.8692 6.22178 9.04934
5854 1 32.337 4.28885 9.06006
5937 1 31.9811 6.29506 10.3225
5858 1 32.1739 4.51235 12.541
5058 1 28.6085 4.73978 12.6757
6654 1 35.8906 4.20724 9.12507
5860 1 34.4304 4.70743 11.0541
5935 1 33.8484 6.38261 8.91385
6737 1 35.8598 6.66952 11.0578
6658 1 -0.311871 4.57567 12.4686
5934 1 31.9949 8.37772 8.91457
5939 1 33.8563 6.87763 12.2579
7534 1 2.97513 7.75817 8.78772
6740 1 1.13798 8.29302 10.9041
7617 1 2.95744 9.6548 10.4026
6815 1 1.05276 10.1104 8.91574
6820 1 0.594561 12.1619 10.6612
7615 1 4.92562 9.63563 8.90435
7540 1 4.73388 7.93025 10.6916
334 1 6.68068 7.85205 9.2624
420 1 6.57482 9.94844 10.5478
340 1 8.73884 7.88558 10.6369
415 1 8.66601 9.77222 9.18151
1134 1 10.5849 7.89341 8.56817
1217 1 10.4146 9.58277 11.0172
1215 1 12.1334 9.83072 9.00527
1934 1 13.9305 7.96245 8.9406
2017 1 13.7824 9.86988 10.6402
2020 1 15.3924 11.6871 10.7329
1940 1 15.5061 7.904 11.0319
2015 1 15.3909 10.0984 9.08914
1295 1 12.0657 11.5634 10.8427
2014 1 13.6236 11.884 8.89765
2740 1 19.0551 8.1376 11.1345
2734 1 17.5147 8.48407 9.07589
2817 1 17.3379 10.1454 11.0358
2815 1 19.8622 9.39143 9.07903
3540 1 23.4987 8.11196 10.8991
3534 1 21.3902 7.68039 9.18328
3617 1 21.3965 9.73431 10.8317
3615 1 23.2152 9.60249 8.96813
3538 1 21.4401 7.68549 12.2959
4340 1 26.7131 8.27084 11.046
4334 1 25.3772 8.01501 8.95749
4417 1 24.7338 10.0005 10.5221
4415 1 26.4335 10.0676 9.14732
4414 1 24.6736 11.8901 9.0148
4420 1 26.5227 11.7045 10.9316
4338 1 24.773 8.02994 12.5737
4419 1 26.8338 10.3208 12.7211
5134 1 28.308 8.40377 9.41393
5217 1 28.6841 9.84537 11.1126
5140 1 30.4354 8.15233 10.8878
5215 1 30.292 10.2105 9.03417
6014 1 32.3198 11.7185 9.08582
5214 1 28.422 11.6963 9.01585
5220 1 30.197 11.8052 10.7549
6018 1 32.6231 11.586 12.2446
6017 1 32.4465 9.89257 10.5791
5940 1 34.2046 8.3394 10.0877
6734 1 35.9123 8.06535 8.76293
6015 1 34.1191 10.3958 8.84513
6817 1 -0.536351 10.0738 10.5737
6019 1 34.0462 9.57391 12.2366
5938 1 32.1428 8.53579 12.6068
7614 1 2.90418 11.564 9.04812
7697 1 3.12038 13.3446 10.6444
6895 1 0.967076 13.4648 8.8746
6898 1 0.99753 15.109 10.748
7694 1 2.87883 15.182 8.92721
7620 1 4.9022 11.5779 10.4782
414 1 6.64696 11.6386 9.14556
7695 1 4.80416 13.323 8.98302
1293 1 6.36528 13.6355 10.9804
7775 1 4.6223 15.5161 10.8725
494 1 6.25845 15.3675 8.98564
1214 1 10.2069 11.8058 9.00997
1213 1 8.36142 11.8003 10.7217
493 1 8.34519 13.6529 8.77495
495 1 10.0831 13.3944 10.941
500 1 8.19378 15.1666 10.7809
2094 1 12.1147 13.459 9.28663
1299 1 11.9158 15.0671 10.9528
2095 1 15.7186 13.233 9.09398
2097 1 13.9185 13.6054 10.9003
2100 1 15.437 15.278 10.7142
2177 1 13.6727 15.1174 8.95857
2179 1 13.7941 14.8066 12.8441
2820 1 19.572 11.3565 11.0627
2814 1 17.6613 11.8546 8.89043
2895 1 19.2774 13.4668 9.25916
2897 1 17.3998 13.2504 10.9402
2900 1 18.9185 15.1539 11.0906
2894 1 17.4916 15.2017 9.38649
3614 1 21.6071 11.5407 9.25888
3620 1 23.2403 11.6987 11.0229
3697 1 21.2313 13.6262 10.9508
3695 1 22.9699 13.3897 9.06251
3700 1 23.2934 15.2015 10.8667
3694 1 20.8771 15.0993 9.35509
3698 1 21.4115 15.2155 12.7659
4497 1 24.6675 13.3912 10.9757
4495 1 26.7363 13.3128 9.09744
4500 1 26.5893 15.1581 10.5447
4494 1 25.2282 15.2869 8.84144
4498 1 24.9136 15.1696 12.4086
5297 1 28.4867 13.3842 10.8105
5295 1 30.4918 13.5646 8.87142
5294 1 28.6266 15.0922 9.09351
5300 1 30.5398 15.0762 10.6272
6814 1 35.652 11.8813 8.84534
6094 1 32.0821 15.6402 8.68291
6097 1 32.1829 13.4255 10.9519
6020 1 34.3722 11.6273 10.8349
6897 1 35.7355 13.7842 10.8352
6095 1 33.7452 13.627 8.8948
6100 1 33.9962 15.3087 10.9691
6894 1 35.9894 15.434 8.85247
6900 1 2.74529 16.9833 10.7262
6975 1 1.04619 17.0576 8.93239
7777 1 0.835089 18.8519 10.9608
7774 1 2.61473 18.8257 9.05606
7773 1 4.5126 17.2249 9.0885
577 1 6.3195 17.13 10.7778
574 1 6.20592 18.9231 9.12858
7780 1 4.57885 18.7064 11.071
578 1 6.57746 18.9241 12.774
1294 1 10.0473 15.3015 8.85393
575 1 8.06834 16.9118 9.37649
580 1 8.14635 18.7893 10.8972
496 1 10.2318 17.0169 10.8275
1374 1 9.98122 18.8684 9.14928
1380 1 11.8911 18.6956 10.6067
1375 1 12.0214 16.7009 9.19056
1300 1 13.4947 16.7403 10.8305
2174 1 13.7218 19.3718 9.12202
2180 1 15.58 19.4877 10.671
2175 1 14.9336 17.1701 9.29783
2977 1 17.097 17.1886 10.4745
2975 1 19.2649 17.018 9.22039
3774 1 19.1535 18.7415 10.8723
2974 1 17.4444 18.9848 8.94433
3777 1 21.0079 17.1454 10.6821
3775 1 23.0441 17.0086 9.49181
3853 1 20.8634 18.9226 9.25648
3780 1 23.2277 18.9624 10.5918
3778 1 21.3735 18.8269 12.2476
3779 1 23.1239 17.085 12.3714
4577 1 25.1713 17.1041 10.5583
4574 1 25.1444 19.2732 9.10941
4575 1 26.8168 17.2517 8.9581
4580 1 26.7599 18.6229 10.9166
5377 1 28.5444 16.919 10.782
5374 1 28.5075 18.8756 9.28267
5380 1 30.2677 17.2934 9.23151
5455 1 30.6596 19.1437 10.7536
6177 1 32.293 17.009 10.6483
5375 1 32.1961 18.8128 9.02752
6175 1 34.1642 16.8209 9.31647
6977 1 35.8928 17.0621 10.9524
6974 1 35.778 18.6875 9.22815
6180 1 33.9335 18.7493 10.7854
7857 1 2.43997 20.4877 10.8436
6980 1 0.507578 20.7124 9.15866
7854 1 2.50064 22.596 9.04505
7060 1 0.809719 22.7796 11.0877
7860 1 4.60804 22.4541 10.939
7855 1 4.40053 20.8438 9.14559
657 1 6.35794 20.5524 10.8801
654 1 6.361 22.3465 9.33441
660 1 8.12511 22.5911 11.0416
655 1 8.04999 20.6826 9.1369
1457 1 10.115 20.8148 11.0234
1454 1 9.71207 22.6121 9.42515
659 1 7.98744 20.7729 12.3501
1455 1 11.5803 20.7977 9.12993
1460 1 11.8861 22.5616 10.8721
2257 1 13.3186 20.5544 10.9784
2260 1 15.2996 22.5727 10.6239
2254 1 13.2456 22.5086 9.18382
2255 1 15.4834 20.8877 8.8293
3057 1 17.092 21.1404 10.7711
3055 1 19.3413 20.9285 9.25945
3054 1 17.4144 22.7254 9.04489
3060 1 19.179 22.7117 10.8572
3854 1 20.9615 22.7029 9.20412
3857 1 21.3986 20.8799 10.785
3855 1 23.2071 20.9635 9.11502
3860 1 23.0138 22.5651 11.1409
3858 1 21.0238 22.6937 12.5832
4654 1 25.1733 22.3647 9.16009
4657 1 25.3127 20.8319 10.9124
4655 1 26.9167 20.8143 8.84544
4660 1 27.0824 22.5369 11.022
4659 1 26.648 20.2471 12.7419
5457 1 28.5558 20.5994 10.9846
5454 1 28.7592 22.5091 8.93731
5460 1 30.3444 20.6254 8.9955
5539 1 30.3635 22.1689 10.6897
5458 1 28.5126 22.7605 12.7702
6254 1 32.4036 22.3603 8.91999
6257 1 32.4546 20.6613 10.9241
7057 1 35.5947 20.4723 11.0344
6255 1 34.1602 20.6859 9.16092
7054 1 36.0092 22.6825 9.08304
6260 1 34.2331 22.5876 11.0741
7937 1 2.77315 24.4305 10.9872
7135 1 1.08687 24.4347 9.07516
7934 1 2.94933 26.1701 9.21363
7140 1 0.858682 26.1903 10.9109
6415 1 1.06055 27.75 9.24485
6419 1 1.04419 28.0657 12.541
7938 1 2.83467 26.1477 12.6122
737 1 6.48605 24.4559 11.0384
7935 1 4.41331 24.2818 9.22537
7940 1 4.85807 26.0432 10.8332
734 1 6.3465 26.1899 9.01101
738 1 6.51958 26.1342 12.6239
7215 1 4.49623 28.0841 8.73157
735 1 8.20996 24.4816 8.96009
740 1 7.90485 26.3854 10.8692
1537 1 9.82584 24.6427 10.9449
1534 1 9.91271 26.6183 9.2242
1538 1 9.86921 26.3967 12.7362
1535 1 11.4748 24.3627 9.11067
1540 1 11.9681 26.1045 10.4837
2337 1 13.8756 24.7998 10.8519
2334 1 13.5444 26.3929 8.68761
1619 1 15.8972 28.0782 12.4928
2335 1 15.2791 24.0342 8.98596
2340 1 15.7155 26.2579 10.5066
3137 1 17.1967 24.3385 11.0024
3135 1 19.1674 24.5961 8.9565
3134 1 17.635 26.5559 9.08252
3140 1 19.697 26.3003 11.0589
2419 1 19.0739 27.8675 12.8565
3934 1 21.043 26.0063 8.91696
3937 1 21.1897 24.208 10.8078
3935 1 23.1199 24.1633 9.06544
3940 1 22.9532 25.8433 10.7944
3939 1 22.6881 24.7728 12.9063
3938 1 20.8996 26.2388 13.0283
4737 1 24.9548 24.2466 11.0075
4734 1 24.922 26.0992 8.89745
4735 1 26.8476 24.2232 9.29019
4740 1 26.7879 26.1185 10.682
4738 1 24.6788 26.1261 12.6697
5537 1 28.6294 24.5365 11.1126
5536 1 28.8382 26.5767 9.22119
5535 1 30.3839 24.4068 9.3404
4817 1 30.8534 26.2567 10.7522
6338 1 32.4096 26.4884 12.8619
6337 1 32.278 24.3207 10.9163
5540 1 30.3865 24.3648 12.4086
6334 1 32.2294 26.3566 8.91322
6335 1 33.942 23.9874 9.25487
7137 1 35.6405 24.6559 10.8037
7134 1 35.7739 26.308 9.32227
6340 1 33.9051 26.3223 10.6198
7138 1 35.8413 26.4926 12.5016
6339 1 34.101 24.7837 12.7553
7217 1 2.88225 27.7276 10.8417
6420 1 0.927953 29.9597 11.0776
7214 1 2.45877 29.4626 9.04744
6500 1 2.91172 31.9251 11.1077
7218 1 2.80285 29.8188 12.2156
17 1 6.30672 28.0041 10.826
7220 1 4.45988 29.9272 10.6697
14 1 6.04624 29.6594 8.95069
97 1 6.5072 31.7566 10.7926
7295 1 4.27414 31.634 9.36212
7299 1 4.74232 31.7216 12.5361
18 1 6.39635 29.8032 12.6083
15 1 8.22853 28.6179 8.84714
817 1 10.0806 28.3277 10.87
20 1 8.14047 29.9663 10.8126
814 1 10.0718 29.9341 8.72335
897 1 10.221 31.4654 10.9301
95 1 8.4149 31.436 8.91438
818 1 10.1516 29.8871 12.8116
99 1 8.51243 31.575 12.6013
815 1 12.0356 28.1981 9.09505
1615 1 15.3617 28.0906 8.84071
820 1 12.0757 29.8676 10.7556
1617 1 13.8034 27.7894 10.8613
1620 1 15.6963 30.0074 10.572
1614 1 13.9357 29.95 9.28468
1618 1 13.789 29.7519 12.6672
895 1 12.0485 31.4863 8.91986
899 1 12.1798 31.5835 12.7531
1695 1 15.001 31.8526 8.86695
1697 1 13.9086 31.5437 10.8127
1699 1 15.4565 32.1224 12.8302
2417 1 17.6764 28.0484 11.0374
2415 1 19.6972 27.8826 9.27517
2420 1 19.2854 29.5618 10.8642
2414 1 17.3131 30.0263 9.00101
2418 1 17.8388 29.8494 12.6537
2497 1 17.3695 31.538 10.9362
3215 1 22.8435 27.6182 9.17069
3217 1 21.4174 27.6971 10.9012
3214 1 21.0884 29.9909 9.25616
3220 1 22.9609 29.7833 11.0601
3295 1 22.8182 31.633 9.11151
3297 1 21.0368 31.4847 11.1247
3219 1 23.042 27.9984 12.9095
3299 1 22.6954 31.6455 12.6467
4015 1 26.4155 27.8658 9.1305
4017 1 24.8184 27.9764 11.1218
4014 1 24.5951 29.9978 9.18626
4020 1 26.8032 29.8076 10.7189
4016 1 26.8258 32.0067 9.35343
4097 1 24.6211 31.7303 10.9959
4018 1 24.8493 29.8267 12.615
4099 1 26.6149 31.598 12.5767
5534 1 28.5709 28.1966 10.7551
4815 1 30.4724 28.5223 9.05613
4814 1 28.6702 30.1632 9.14825
4820 1 30.3717 30.1507 11.2395
4897 1 28.5446 31.7619 11.1101
5617 1 32.1514 28.1877 10.722
4895 1 30.422 32.0205 9.42165
4899 1 30.4408 31.8974 12.9123
5614 1 32.5267 29.9527 9.1701
5697 1 32.4478 31.8309 11.0144
4164 1 35.9626 29.9001 9.11815
5615 1 34.1048 27.9419 9.1069
6417 1 35.9009 28.1479 10.8897
5620 1 34.1323 29.9204 11.0512
6418 1 36.0968 31.6661 10.8796
5695 1 34.3145 31.534 9.15038
6497 1 35.7003 30.2501 12.6737
5619 1 34.0447 27.9387 12.3643
6495 1 1.00523 31.8017 8.77512
6575 1 3.15042 35.7079 11.0058
7297 1 0.948814 35.4432 9.07982
7294 1 2.91063 33.8048 9.39383
7298 1 0.805436 33.9723 10.8629
7379 1 2.98609 34.0834 12.9032
7375 1 4.77686 35.5188 9.36489
177 1 6.70804 35.7639 10.8274
7300 1 4.90201 33.6687 10.8045
94 1 6.5028 33.7289 8.99149
7381 1 4.61106 35.9095 12.8183
100 1 8.40534 33.7277 11.0033
175 1 8.26807 35.5176 9.13908
977 1 10.1471 35.3391 10.9147
894 1 9.9225 33.4415 8.95705
975 1 11.6849 35.2314 9.16257
179 1 8.38752 35.4656 12.7105
900 1 11.992 33.2111 11.0465
1777 1 13.7306 35.2417 10.6299
1694 1 13.5845 33.6121 8.89902
1698 1 13.6201 33.9878 12.6086
979 1 12.1332 35.9158 12.1402
2495 1 19.1256 31.7589 9.24909
1775 1 15.6246 35.19 9.10975
1700 1 15.5314 33.5432 10.6645
2575 1 19.4341 35.2665 9.28026
2577 1 17.6865 35.3696 10.6371
2494 1 17.3955 33.2909 9.45389
2500 1 19.2759 33.5583 10.8835
2498 1 17.5377 33.4872 12.7026
3377 1 21.3012 35.5669 10.6835
3375 1 22.772 35.3308 8.68848
3294 1 20.9978 33.4944 9.09096
3300 1 22.7883 33.4774 10.6957
4177 1 24.533 35.3077 10.4154
4094 1 25.0445 33.6584 8.86531
4175 1 26.8854 35.5694 9.05789
4100 1 26.7547 33.7981 10.9124
4179 1 26.3561 35.3385 12.6934
4894 1 28.5256 33.8871 9.2405
4977 1 28.5205 35.2474 10.9884
4975 1 30.0521 35.6879 9.32645
4900 1 30.6058 33.6932 11.1264
5777 1 32.2731 35.4924 11.0992
4898 1 28.5625 33.6574 12.839
5694 1 32.3124 34.0177 9.13451
5775 1 34.0715 35.6569 9.23795
6577 1 35.9128 35.8135 11.0445
6494 1 35.6286 33.6718 8.9095
5700 1 34.1507 33.7496 10.9243
7378 1 2.97987 1.00894 12.9122
7382 1 2.64193 0.895448 16.417
6584 1 1.05966 0.710196 14.3492
7461 1 2.83072 2.53477 14.6615
6663 1 1.05532 2.60494 16.3886
7380 1 4.9984 2.45346 12.4207
7384 1 4.88771 1.19363 14.8234
7463 1 6.76214 0.732936 16.2699
7459 1 6.56034 2.63226 14.1701
261 1 4.57442 3.15651 16.2569
978 1 9.96674 0.5684 12.6499
259 1 8.46643 2.44019 12.5529
263 1 8.1024 2.50703 16.0228
184 1 8.53677 0.834626 14.5421
1058 1 10.3383 2.49717 14.3208
1067 1 9.96895 0.744589 16.1728
1063 1 11.9453 2.24936 16.2952
982 1 12.0564 0.441703 14.1575
1785 1 13.6462 0.509787 16.1201
1861 1 13.6792 2.33781 14.2553
1863 1 15.3285 2.34515 16.1626
1859 1 15.4568 2.59779 12.3205
1784 1 15.6489 0.65602 14.5053
2659 1 19.256 2.43916 12.9581
2582 1 17.5525 0.939426 16.1731
2584 1 19.1905 0.475328 14.5218
2663 1 19.5226 2.52646 16.3139
2661 1 17.1582 2.23326 14.2876
3384 1 22.8996 0.490351 14.5639
3461 1 21.1944 2.37272 14.3864
3382 1 22.8742 2.73935 16.0062
2583 1 21.1772 0.471348 16.387
4261 1 24.8549 2.34129 14.4609
4182 1 24.8131 0.536521 16.3214
4184 1 26.4444 0.276411 14.4386
4263 1 26.8501 2.68869 15.9304
4978 1 28.5727 0.538297 12.5936
5061 1 28.7714 2.59844 14.2714
4982 1 28.3729 0.630856 15.6582
4984 1 30.4415 0.584723 14.3832
5063 1 30.6716 2.68249 15.9636
5861 1 32.5633 2.2661 14.2928
5782 1 32.2113 0.662834 15.9893
6582 1 36.0338 0.72204 15.9559
5784 1 34.162 0.807042 14.4207
6661 1 35.909 2.53249 14.4316
5863 1 34.0348 2.65916 16.0839
6739 1 1.07117 6.30672 12.2973
7462 1 2.98613 4.67655 16.1763
7541 1 2.79953 6.7009 14.514
6664 1 0.966367 4.8274 14.3058
6743 1 1.00549 6.37894 16.3488
7543 1 4.44538 6.26572 16.3204
262 1 6.28029 4.52604 15.6025
7464 1 4.52125 4.72591 13.8978
341 1 6.74092 6.26154 13.8413
264 1 8.48856 4.22942 14.3436
344 1 8.53077 6.11929 16.0395
1061 1 10.3392 4.45377 16.1656
1142 1 10.406 6.15362 14.4854
1139 1 11.8716 5.79465 12.6195
1223 1 12.2735 5.95995 16.6129
1141 1 12.1859 4.10644 14.5259
1858 1 13.6207 4.08992 12.5689
1864 1 15.4513 4.0376 14.4341
1064 1 13.6778 3.8868 16.3514
1941 1 13.5879 5.99965 14.5795
1939 1 15.5167 6.00462 12.6043
1943 1 15.3136 5.90959 16.5152
2739 1 19.2525 6.29077 12.7192
2664 1 19.3479 4.35504 14.7601
2743 1 19.3471 6.42532 16.2259
2662 1 17.1349 4.01381 16.2957
2741 1 17.5021 6.12909 14.6164
3458 1 21.4291 4.2412 12.8053
3539 1 23.2689 6.24388 12.564
3462 1 21.1838 4.45371 16.2846
3541 1 21.0742 6.03678 14.5818
3464 1 23.117 4.42081 14.4596
3543 1 23.2556 5.98972 16.1722
4339 1 26.8524 6.44706 13.1268
3463 1 25.0527 4.23695 15.8156
4262 1 25.019 6.28059 14.7029
4264 1 27.3784 4.46552 14.4103
4343 1 26.7146 6.47066 16.4404
5139 1 30.6821 6.12653 12.634
5062 1 28.9637 4.5371 16.391
5141 1 28.758 6.81212 14.4414
5143 1 30.566 6.31479 15.9623
5064 1 30.2306 4.79888 14.3008
5862 1 32.3001 4.32039 15.6686
5941 1 32.4135 6.43082 14.2274
6662 1 35.6616 4.82917 15.7434
5864 1 34.1625 4.31626 14.2731
6741 1 35.6282 6.4357 14.3957
5943 1 33.8299 6.41999 16.1851
6819 1 1.09021 10.1005 12.8125
7538 1 3.01181 8.4636 12.6997
7542 1 2.71844 7.88272 16.6959
7624 1 3.06181 9.76221 14.6916
6744 1 1.15393 8.33946 14.5397
6823 1 0.916001 10.1391 16.3444
7628 1 2.61756 11.5704 16.6151
6824 1 1.31903 11.5834 14.1715
417 1 6.5936 8.10326 12.3088
7619 1 5.17321 9.82612 12.6364
7621 1 4.95588 8.306 14.4111
7548 1 4.6802 9.70544 16.4136
7544 1 6.6542 7.91556 16.1476
7623 1 6.34674 10.1031 14.5776
418 1 4.47798 11.3348 14.7291
422 1 6.46013 11.8663 16.3794
419 1 8.60953 9.67131 12.6539
1138 1 10.4424 7.96343 12.9926
338 1 8.45547 8.0992 14.3955
421 1 7.85001 9.94067 16.1456
1221 1 10.1481 10.0057 14.2909
1069 1 10.4241 7.70348 16.1233
424 1 8.46375 11.5771 14.3786
1938 1 13.6064 7.86283 12.6009
2019 1 15.4102 9.85459 12.4865
1303 1 11.9644 11.6173 14.4702
1224 1 12.387 9.82856 12.8325
1144 1 12.3231 7.87894 14.6699
503 1 11.7674 9.59746 16.2733
1942 1 14.034 7.94507 16.5015
2021 1 13.9148 9.80121 14.4539
2023 1 15.51 9.579 16.2275
1944 1 15.6418 8.08822 14.3156
1220 1 13.8504 11.6783 12.5713
2022 1 13.7003 11.7233 16.3695
2024 1 15.6331 11.5016 14.6436
2819 1 19.5169 9.86359 12.8959
2738 1 17.1936 7.79873 12.776
2818 1 17.6632 11.3758 12.796
2742 1 17.7922 8.08604 16.0553
2744 1 19.1119 7.99824 14.2677
2821 1 17.3614 9.73731 14.2768
2823 1 19.6653 9.48847 16.4482
3619 1 23.2538 10.0606 12.6067
3551 1 21.3975 8.02369 16.379
3621 1 21.6278 9.59664 14.3247
3544 1 22.9766 7.51882 14.6779
3623 1 22.9311 10.0268 16.6296
3618 1 21.5228 11.4329 12.6309
4342 1 25.1296 8.31625 16.4327
4421 1 24.8618 9.64338 14.8025
4344 1 26.8191 8.37233 14.3745
4423 1 26.8435 10.0964 16.0665
4424 1 26.4764 12.052 14.8977
4422 1 24.7153 11.6443 16.4271
5219 1 30.6765 10.2217 12.4785
5142 1 28.6307 8.42574 16.2172
5138 1 28.6794 8.30835 12.8833
4341 1 28.5523 10.1467 14.4892
5144 1 30.568 8.59657 14.2347
5221 1 30.7314 9.95268 16.4357
5942 1 32.4874 8.17082 15.9201
6818 1 35.9267 11.7821 12.6243
6021 1 32.3226 10.1219 14.4855
6738 1 36.1064 8.49151 12.8724
6742 1 35.703 8.07224 16.1377
5944 1 34.0155 8.33681 14.1458
6821 1 36.1369 10.2229 14.7633
6023 1 34.4596 10.0142 16.1373
6022 1 32.2401 11.8035 16.184
6024 1 34.1155 12.0533 14.4904
6822 1 35.8544 11.7824 16.1699
7698 1 2.72538 15.4523 12.6778
6899 1 1.45866 13.189 12.4792
7618 1 3.24862 11.304 12.5587
6903 1 0.910151 13.4229 16.4612
7701 1 2.84535 13.1678 14.7722
6904 1 0.966034 15.272 14.6663
7702 1 2.77578 15.2859 16.4322
498 1 6.39544 15.0145 12.7465
497 1 6.90908 11.4693 12.725
7700 1 4.64797 13.211 12.8209
7699 1 6.19689 13.2882 14.488
7704 1 4.3132 15.1542 14.6021
1218 1 10.3973 11.8363 12.6849
1301 1 8.07355 13.4137 12.3456
642 1 9.56068 15.2827 12.5871
504 1 10.0611 11.5915 15.9078
1222 1 8.20462 13.5108 16.2938
1302 1 9.64776 13.5885 14.2473
501 1 8.05459 15.1622 14.4842
499 1 9.85106 15.1129 16.3266
2099 1 15.8254 13.3806 12.8263
1298 1 11.9091 15.0991 14.4797
1297 1 11.8915 13.6346 12.7939
1307 1 11.4928 13.3479 16.1334
2018 1 13.7437 13.3414 14.4943
2103 1 15.8949 13.3873 16.4538
2098 1 13.4775 14.8054 16.6091
2101 1 15.651 14.9276 14.6684
2898 1 17.468 14.9766 12.9461
2899 1 19.4986 13.1469 12.5158
2822 1 17.573 11.3157 16.1097
2824 1 19.5258 11.5398 14.7744
2903 1 18.8935 13.179 16.7134
2901 1 17.6985 13.3713 14.491
2104 1 17.4738 15.5223 16.1201
2904 1 19.4007 15.0325 14.4056
3624 1 23.0983 11.5617 14.7036
3622 1 21.0374 11.4897 16.5675
3699 1 23.086 13.5896 12.8871
3701 1 21.3522 13.3138 14.4747
3703 1 23.2659 13.5349 16.6532
3704 1 23.2693 15.2772 14.3821
3705 1 21.44 15.1662 16.0547
4418 1 24.8201 11.8795 13.0675
4499 1 26.6678 13.3398 12.6708
4501 1 24.7152 13.4637 14.7291
4503 1 26.8779 13.6212 16.9802
4502 1 24.9934 15.2258 16.2266
4504 1 26.3815 15.1548 14.5373
5298 1 28.5539 15.1468 12.3704
5299 1 30.4244 13.7116 12.3326
5218 1 28.8582 11.7944 12.8368
5222 1 28.8825 11.7531 16.1386
5301 1 28.3352 13.7362 14.446
5224 1 30.4828 11.4607 14.5205
5303 1 30.506 13.3646 15.9335
5304 1 30.3752 15.1518 14.175
5302 1 28.7515 14.9767 16.5231
6101 1 32.088 12.952 14.2129
6098 1 32.3476 14.9767 12.8691
6099 1 34.1879 13.7632 12.7309
6104 1 -0.485732 15.1314 12.6414
6902 1 36.0865 15.2796 16.4053
6102 1 32.5498 15.4804 15.5679
6028 1 34.294 13.7121 16.0853
6901 1 35.8804 13.5938 14.3491
6103 1 34.364 15.4496 14.2433
7778 1 2.97307 18.9783 12.847
6979 1 0.906263 17.0282 12.7658
7781 1 2.58452 16.9445 14.483
6983 1 1.06037 17.3717 16.0443
7782 1 2.92198 18.893 16.0685
6984 1 0.967513 19.2087 14.4794
7779 1 4.45462 17.1165 12.8522
502 1 6.04712 15.2323 16.1555
7784 1 4.74403 18.7522 14.5967
7783 1 4.53625 17.1674 16.2702
581 1 6.21582 16.8419 14.3768
582 1 6.4076 18.8964 16.1289
579 1 8.11267 17.1113 12.7122
1378 1 9.69965 18.9677 12.6353
584 1 8.24382 18.9018 14.5521
583 1 8.03486 17.0853 16.1563
1381 1 10.1015 17.022 14.454
1382 1 10.2395 18.9159 16.0574
1377 1 11.9788 17.068 12.7556
1384 1 12.0123 19.0043 14.4394
1383 1 11.8011 16.6283 16.0397
2178 1 14.0101 18.7923 12.7239
1379 1 15.8123 17.0809 15.8822
1304 1 14.1925 16.5302 13.8657
2182 1 14.029 18.8625 15.941
2978 1 15.8801 16.9871 12.3193
2184 1 15.755 18.6184 14.4886
2979 1 19.5766 17.0534 12.5532
2980 1 17.6577 18.9212 12.6316
2981 1 17.6941 17.1421 14.1085
2983 1 19.3337 17.0933 16.1856
2982 1 17.4763 19.0152 15.8648
2984 1 19.6329 18.6578 14.2326
3781 1 21.3748 16.9588 14.3158
3783 1 23.2254 17.1805 16.3284
3782 1 21.3452 19.1705 15.9177
3784 1 23.2988 18.7679 14.3696
4578 1 24.8561 18.5977 12.6146
4579 1 26.8834 17.0904 12.8377
4581 1 25.0959 17.1515 14.4171
4582 1 24.8217 18.5829 16.9545
4583 1 26.9164 16.8291 16.4508
4584 1 26.5635 18.6945 14.8268
5378 1 28.869 19.0027 12.8382
5379 1 30.1937 16.8925 12.3677
5382 1 28.5139 18.8215 16.3103
5381 1 28.5426 16.9666 14.6351
5383 1 30.5935 16.7584 16.1151
5384 1 30.3663 18.7117 14.4164
6182 1 31.9248 19.0195 16.0728
6178 1 31.9877 18.82 12.5549
6179 1 34.0674 17.0117 12.4502
6978 1 35.728 18.7137 12.8172
6181 1 31.9862 17.1069 14.241
6981 1 35.8314 17.1685 14.6681
6183 1 33.8745 17.232 16.3483
6184 1 34.0095 18.7887 14.3492
6982 1 35.5845 19.3075 16.1478
7858 1 2.83213 22.4986 12.4911
7059 1 0.750126 20.5224 12.4788
7861 1 2.81906 20.6541 14.4076
7862 1 2.87565 22.5219 16.1173
7063 1 0.899758 20.7202 16.1999
7064 1 1.17271 22.4651 14.029
658 1 6.43243 22.4742 12.6204
7859 1 4.4022 20.8781 12.4782
7863 1 4.60568 20.5155 16.2784
661 1 6.43648 21.0239 14.6932
7864 1 4.65635 22.6945 14.6246
662 1 6.21775 22.5429 16.5625
1458 1 10.4654 22.3223 12.723
663 1 8.25081 20.6563 16.3685
664 1 8.24233 22.6384 14.5996
1461 1 9.89152 20.8029 14.2163
1462 1 9.96083 22.5341 16.1743
2259 1 15.1949 20.9309 12.6298
1459 1 11.9798 20.4354 12.7366
2258 1 13.4943 22.6189 12.5804
1464 1 12.1322 22.5226 14.4142
1468 1 11.7631 20.7025 16.1066
2261 1 13.7406 20.4421 14.5117
2263 1 15.4775 20.6027 16.192
2262 1 13.6977 22.4236 16.4352
2264 1 15.376 22.7904 14.404
3059 1 19.3043 20.7932 12.4239
3058 1 17.3193 22.5873 12.6891
3062 1 17.591 22.4804 16.233
3061 1 17.155 20.6742 14.416
3064 1 19.1422 22.6672 14.5671
3859 1 23.0365 20.5909 12.7466
3063 1 19.447 20.7024 16.2868
3861 1 21.0946 20.6146 14.0453
3863 1 23.2822 20.3941 15.811
3862 1 21.4983 22.1575 16.0117
3864 1 23.3854 22.4813 14.0066
4658 1 25.3318 22.8587 12.765
4663 1 26.7572 20.4396 16.4138
4662 1 25.0871 22.7266 16.0002
4661 1 25.0866 20.6935 14.2466
4664 1 26.8796 22.65 14.4261
5459 1 30.5833 21.045 12.5852
5462 1 28.0891 22.5576 16.1837
5461 1 28.6995 20.866 14.3256
5463 1 30.3949 21.1703 16.2908
5464 1 30.044 22.882 14.374
6262 1 32.1002 22.975 16.2211
7058 1 35.9427 22.558 12.7418
6259 1 33.8479 20.6797 12.9984
6258 1 32.5442 22.6038 12.6566
6261 1 32.0792 21.1259 14.5547
7061 1 35.7876 20.9096 14.1314
6263 1 34.1993 20.8905 16.1509
6264 1 33.9235 22.788 14.7324
7062 1 36.0331 22.7494 15.9523
7139 1 0.935405 24.3564 12.7904
7143 1 1.30948 24.3005 16.3892
7941 1 2.84585 24.6014 14.3093
7942 1 2.70307 26.5161 16.367
7144 1 0.854131 26.142 14.4393
7219 1 4.47148 28.0214 12.4469
7939 1 4.56879 24.5832 12.6797
7944 1 4.90874 26.6125 14.5765
7943 1 4.5854 24.7812 16.3198
742 1 6.39375 26.5948 16.3005
741 1 6.26338 24.283 14.3027
739 1 8.34201 24.5416 13.1278
744 1 8.00777 26.3441 14.5854
743 1 8.21897 24.363 16.1501
1541 1 10.2261 24.5661 14.5276
1542 1 9.9912 26.2045 16.4402
1539 1 11.9124 24.4618 12.3339
2339 1 15.1572 24.215 12.6712
2338 1 13.8997 26.4133 12.7554
1543 1 11.979 24.3872 16.1576
1544 1 11.872 26.2102 14.1087
2342 1 13.5227 26.0214 16.1954
2341 1 13.6095 24.5273 14.3324
2344 1 15.476 25.8195 14.4842
823 1 12.0248 27.9447 16.108
1623 1 15.5334 28.1408 16.309
3139 1 19.1816 24.3598 12.7277
2343 1 15.5302 24.226 16.1709
3138 1 17.5917 26.2028 12.6421
3141 1 17.639 24.3311 14.8319
3142 1 17.5612 26.1387 16.4478
3143 1 19.4637 24.3957 16.6598
3144 1 19.3251 26.1204 14.7181
3942 1 21.2461 26.1924 16.2222
3941 1 21.1792 24.1636 14.7407
3943 1 22.9867 23.6764 16.2676
3944 1 22.9196 26.4239 14.7554
4739 1 26.6734 24.7234 12.9217
4741 1 24.6815 24.7215 14.4482
4744 1 26.6374 24.5014 16.2099
4019 1 26.336 26.4893 14.3741
4742 1 24.8494 26.1553 16.28
5538 1 28.4263 26.4887 12.5164
5541 1 28.4429 25.0748 14.295
5542 1 28.3264 26.3516 16.3719
5543 1 30.294 24.5525 15.9858
5544 1 30.2314 26.2644 14.328
6342 1 32.2234 26.4862 16.1261
6341 1 32.1998 24.7584 14.5439
7142 1 -0.550014 26.0608 16.1807
7141 1 35.7378 24.3314 14.4574
6344 1 34.5355 26.5311 14.3814
6343 1 34.2321 24.6213 16.1831
5623 1 33.9141 28.0191 16.3501
6421 1 35.8945 28.6189 14.279
4819 1 32.0897 28.4933 14.4215
7301 1 0.903895 32.0922 12.4893
6423 1 1.07515 28.4998 16.0118
7222 1 2.82498 30.0377 16.3462
7221 1 3.10303 28.2783 14.1871
6424 1 1.41873 30.219 13.9971
6499 1 3.00336 32.0238 14.3539
6503 1 1.149 31.8726 16.1449
7223 1 4.63189 28.4537 16.1463
21 1 6.54398 28.3416 14.5238
7224 1 4.47997 30.2853 14.5939
22 1 6.69357 29.9094 16.3385
7305 1 4.78395 32.1815 16.0097
101 1 6.47823 31.671 14.3808
19 1 8.11711 28.24 12.6176
24 1 8.44462 29.9444 14.5811
821 1 9.97074 28.07 14.1553
23 1 8.33681 28.258 16.2969
822 1 10.0973 29.8 16.3821
103 1 8.20277 31.8832 16.0889
901 1 10.2607 31.5815 14.8392
819 1 11.7464 27.9542 12.5409
903 1 12.2404 32.0034 16.4828
824 1 11.9534 29.8353 14.6143
1622 1 14.5054 30.036 16.3044
1621 1 13.5697 27.9377 14.4143
1701 1 13.9141 31.8381 14.6977
1703 1 15.6778 32.3335 16.4447
1624 1 15.5711 30.0603 14.2374
2421 1 17.2757 28.0085 14.4484
2423 1 18.9883 28.5347 16.4374
2422 1 17.1124 30.1545 16.2992
2424 1 19.0884 29.923 14.5351
2503 1 19.1955 31.7346 16.2545
2501 1 17.1251 31.7312 14.5688
2499 1 19.101 31.6668 12.2003
3218 1 20.4827 29.8376 12.8043
3221 1 20.7577 28.2466 14.6401
3222 1 21.2137 30.1011 16.7364
3223 1 22.947 28.2414 16.4824
3224 1 22.9252 30.0328 14.6954
3303 1 22.6518 32.05 15.9906
3301 1 20.864 32.0197 14.3197
4024 1 26.5749 28.1465 12.6029
4025 1 26.4775 27.8479 16.3177
4021 1 24.7162 28.2039 14.5014
4022 1 24.815 30.2058 16.2965
4822 1 26.5721 30.0211 14.329
4103 1 26.7389 31.4052 16.3383
4101 1 24.6697 31.6104 14.5387
5361 1 30.4143 27.9923 12.3874
4818 1 28.3108 29.9832 12.5566
4823 1 30.1831 28.1579 15.9945
4023 1 28.3534 29.8994 16.1332
4821 1 28.2403 28.2208 14.2475
4824 1 30.0735 29.7191 14.0302
4901 1 28.2281 31.5675 14.3037
4903 1 30.1714 31.5159 16.0288
5618 1 32.1867 30.1781 12.697
5621 1 32.0454 29.8084 16.5422
5701 1 32.3746 31.7539 14.5782
5699 1 34.1715 32.0048 12.5234
5703 1 34.0216 32.0391 16.1937
6501 1 35.7994 31.9519 14.4733
5624 1 34.0015 30.0173 14.5717
6422 1 35.9305 29.9112 16.3167
6579 1 1.31842 35.6536 12.5276
6583 1 0.892011 35.6489 16.0677
7304 1 2.63976 35.797 14.6732
6504 1 0.689063 33.804 14.5829
7303 1 2.81029 33.8804 16.0626
98 1 6.68345 33.8048 12.6094
7383 1 4.83408 35.7525 16.1773
181 1 6.7166 35.6567 14.4417
7302 1 4.98057 34.0363 14.586
185 1 6.98051 33.7459 15.9597
898 1 10.3696 33.4207 12.7691
183 1 8.88469 35.4826 16.1526
102 1 8.57884 33.5696 14.0034
981 1 10.4131 35.3592 14.119
104 1 10.1775 33.6485 16.3334
904 1 12.007 33.6776 14.4612
983 1 11.7692 35.8776 15.995
1779 1 15.6043 35.535 12.6718
1781 1 13.7712 35.3777 14.644
1702 1 13.9641 33.8012 16.1847
1783 1 15.5453 35.8469 16.3969
1704 1 15.6683 33.7189 14.5499
2579 1 19.1335 35.5098 12.5976
2502 1 19.1472 35.5017 16.3283
2581 1 16.9492 35.5185 14.6143
2505 1 17.4779 33.9838 16.3426
2504 1 19.2652 34.0078 14.3939
3298 1 21.0843 34.2987 12.7826
3379 1 23.0161 35.3439 12.612
3381 1 21.0093 35.6187 14.671
3383 1 22.9924 34.881 16.5431
3304 1 23.233 33.4632 14.1599
3302 1 20.7992 33.7676 16.3184
4098 1 24.569 33.6209 12.2862
4181 1 24.5986 35.1752 14.5364
4102 1 24.754 33.2042 16.2128
4104 1 26.3256 33.567 14.2206
4183 1 26.7253 34.9713 16.2208
5698 1 32.4648 33.6409 12.8008
4979 1 30.4486 35.8735 12.6779
5781 1 32.3447 35.487 14.2462
4902 1 28.4472 33.3979 16.0505
4904 1 30.1117 33.4843 14.3344
4983 1 30.145 35.6301 16.2707
4981 1 28.5955 35.3665 14.1984
5702 1 31.7953 33.7771 16.1543
5783 1 34.1988 35.9271 15.8476
6581 1 -0.567532 35.744 14.4447
4242 1 24.7169 3.77242 -1.06999
2643 1 19.8234 2.3485 -1.15788
1362 1 10.0653 18.9549 -1.1613
2485 1 17.5136 33.6277 -1.08851
3922 1 20.9774 26.2168 -1.17175
3363 1 22.8318 35.2351 -1.10978
1763 1 15.9329 35.4873 -1.12757
6674 1 2.46062 0.120158 19.9833
6588 1 0.828883 0.59027 17.9047
7465 1 2.90125 2.51767 18.3373
6667 1 1.0307 2.91013 19.4082
5875 1 0.668536 1.67011 21.1401
7470 1 2.89595 2.79012 21.3662
7467 1 4.87489 2.47853 19.706
7388 1 4.75677 0.701222 18.0109
188 1 6.4333 0.641539 19.5072
265 1 6.4554 2.57447 17.6284
269 1 6.20903 2.7431 21.6663
190 1 4.77227 0.483857 21.1956
267 1 8.11928 2.2863 19.8528
182 1 8.38978 0.549011 18.0949
192 1 10.2006 0.782139 19.8868
985 1 9.85426 2.64756 18.0961
196 1 8.04658 0.89099 21.5264
3488 1 11.6045 0.467622 21.6452
997 1 9.89955 2.58057 21.4293
1079 1 11.8442 2.48042 20.1241
986 1 11.8294 0.675122 18.3653
1782 1 15.3651 0.727611 18.0089
988 1 13.6734 0.767198 19.9809
1947 1 13.4539 2.28599 18.2558
1866 1 15.6763 0.70542 21.6133
1865 1 15.3622 2.6204 19.7982
1867 1 13.8113 2.63483 21.9692
2588 1 19.3027 0.918371 18.0048
2586 1 17.4346 0.992501 19.9034
2746 1 19.1211 2.94765 19.8519
2665 1 17.2853 2.43289 18.1076
2596 1 19.4558 0.784057 21.5301
3396 1 17.3967 2.72548 21.7464
2668 1 21.2181 0.929293 19.7977
3388 1 22.9985 0.746222 18.0012
3473 1 23.29 2.58456 19.81
3465 1 21.1074 2.72444 18.1452
2511 1 23.4415 0.496947 21.3795
4193 1 21.4674 2.64284 21.3171
4265 1 24.8991 2.55007 17.4
4186 1 24.8308 0.444104 19.4057
4188 1 26.9277 0.495319 17.6022
4272 1 26.8771 2.44084 18.9002
4192 1 26.8757 0.620314 20.992
5567 1 25.2755 2.42633 20.9321
2519 1 10.5632 19.9965 35.2911
4986 1 28.7731 0.412845 19.2935
4988 1 30.736 0.627585 17.766
5070 1 30.3035 2.60175 19.2077
5865 1 32.4207 2.65632 17.4354
4107 1 30.7665 0.99871 21.4647
4989 1 28.7583 2.22353 21.1725
5067 1 32.2923 0.656972 19.3978
6586 1 35.6651 0.419412 19.6958
5788 1 34.2265 0.421289 17.6982
5867 1 34.2868 2.35011 19.4808
6665 1 35.9403 3.02501 17.7146
3730 1 35.0999 2.96105 21.8427
4992 1 33.4419 0.838614 21.3557
277 1 3.02117 4.60299 19.6431
7545 1 2.71936 6.43602 18.372
6668 1 0.912805 4.56867 17.5906
6666 1 0.839382 5.88347 19.8138
6592 1 0.751789 4.1081 21.6506
6748 1 1.06006 7.99638 18.223
6676 1 5.00899 6.34519 19.5659
7468 1 4.7629 4.48449 18.1281
2320 1 6.58318 4.19542 19.5375
345 1 6.54016 6.21611 18.0388
270 1 4.76367 4.62612 21.4082
1312 1 6.76127 6.12374 21.4181
440 1 8.26131 6.2948 19.6632
268 1 8.1397 4.3762 17.6896
1065 1 9.94013 4.5111 19.649
272 1 10.078 6.00777 17.8902
347 1 8.04821 4.25682 21.4535
353 1 10.0382 6.48291 21.6283
2113 1 11.7976 8.20159 21.6691
343 1 11.891 6.27635 19.9297
1862 1 11.7625 3.9901 18.087
990 1 13.8069 4.34398 19.713
1945 1 15.6048 4.24565 18.0655
1950 1 13.7566 6.04642 18.2149
1868 1 15.6171 6.10179 19.8058
7010 1 13.9996 6.21253 21.8066
1949 1 11.6562 4.47771 21.5732
2592 1 15.6185 3.9458 21.6723
3546 1 17.5629 4.59935 19.519
2667 1 19.3133 4.70665 17.8497
2672 1 19.5183 6.02244 19.9377
2745 1 17.3522 5.92561 17.5344
3549 1 19.4342 4.33651 21.5614
3470 1 21.4427 6.2509 17.8496
3386 1 21.4111 4.27262 19.9027
3468 1 22.9204 4.20947 18.1983
3466 1 23.3652 6.2275 20.2654
6680 1 21.4225 6.21519 21.6411
5953 1 23.4539 4.10045 21.4809
3548 1 25.0563 6.105 17.9535
4266 1 25.1021 4.11283 19.5162
4268 1 26.9831 4.41149 17.5758
4345 1 27.0152 6.35217 19.367
4996 1 26.9755 4.04578 21.2839
4352 1 25.3298 6.2577 21.3464
2836 1 28.5106 5.93524 21.0329
5066 1 28.6872 4.25889 19.2623
5145 1 28.5437 6.48599 17.8831
5068 1 30.5424 4.75754 17.811
5147 1 30.5811 5.87369 19.8919
5794 1 32.4513 5.80879 21.604
5945 1 32.073 6.40323 17.9105
5866 1 32.2724 4.09167 19.5281
5872 1 35.5619 4.60407 19.7381
5868 1 33.8456 4.45791 17.7928
6827 1 34.0467 6.24407 19.7233
6745 1 35.7692 6.50847 18.0495
5952 1 34.1971 7.72753 21.688
5948 1 34.4291 8.16891 17.8779
5792 1 32.5014 2.9397 21.6946
266 1 2.07932 7.79286 20.5306
7625 1 2.63657 9.81928 17.9955
6828 1 0.832823 9.9662 19.6594
346 1 2.22389 9.58041 21.7283
7622 1 1.02028 12.0542 18.3853
7626 1 2.70751 11.3878 19.9438
6111 1 0.70328 11.3735 21.5557
342 1 4.3697 9.50063 20.1442
7627 1 4.80759 7.9435 18.1655
7630 1 6.51756 8.15533 19.9545
425 1 6.47162 9.7943 18.1593
2275 1 6.15814 9.95997 21.7394
7632 1 4.30826 11.6098 18.1762
7636 1 10.1665 8.35045 19.8645
1066 1 8.50795 8.21212 18.0028
7631 1 8.0959 10.1925 19.9418
423 1 9.87463 10.0862 18.1389
2666 1 10.2912 10.0104 21.626
7475 1 8.31706 8.475 21.9924
1149 1 12.1773 10.0058 19.9863
1148 1 11.9424 7.78873 18.2586
1948 1 15.7581 7.87629 17.9492
1229 1 13.8448 7.77166 19.8601
2025 1 13.7521 9.58723 18.1797
1228 1 13.8169 11.6989 19.8257
2027 1 15.4272 9.53794 19.8948
3553 1 17.5389 7.55349 19.3955
3545 1 19.2899 7.73017 18.1398
1226 1 17.3614 9.5489 17.9751
2039 1 19.0056 9.36148 19.8512
3469 1 19.1115 7.81031 21.5568
3625 1 21.2651 9.62035 18.5899
3471 1 21.4688 7.89447 20.1924
3542 1 23.4707 7.93606 18.1861
3626 1 23.4938 9.76136 19.8609
3547 1 20.6112 9.83034 21.6213
2832 1 23.323 8.02154 21.9816
4346 1 25.0265 8.05957 19.7825
4348 1 26.7364 8.34817 18.1792
4425 1 25.0886 9.95747 18.0804
4427 1 27.1831 9.77114 20.1826
4431 1 25.1295 9.16853 21.8012
4428 1 26.6569 11.5743 17.9786
5225 1 28.5726 9.85774 18.1129
5227 1 29.1474 7.81666 19.7889
5148 1 30.3805 7.84361 17.9045
6029 1 30.8881 9.5283 19.5534
6034 1 29.4121 9.84593 21.3566
4507 1 28.8013 11.684 19.6824
5228 1 30.6885 11.582 17.8832
5947 1 32.5261 8.00349 20.0046
5229 1 32.3419 11.4353 19.6739
5223 1 32.4936 9.77343 17.8853
6672 1 35.8999 7.73663 20.0161
6027 1 34.3964 9.51841 19.8413
6825 1 35.9987 9.71007 18.0248
6025 1 34.098 11.7021 17.836
6826 1 35.8599 11.6205 19.7538
7705 1 2.91577 13.6369 18.2172
6907 1 0.628867 13.5889 19.9874
7706 1 2.65592 15.5934 20.2067
2598 1 0.688128 15.1328 21.7407
6912 1 2.40487 13.0671 21.7713
6908 1 0.689911 15.4871 18.2314
352 1 6.0034 11.5944 19.9937
426 1 4.14395 13.1076 20.0572
505 1 6.2088 13.6683 18.2239
506 1 5.93195 15.3466 19.6781
6832 1 4.27067 11.7542 21.9218
7803 1 33.2038 32.0009 31.1097
1225 1 10.2478 11.6487 20.101
507 1 8.11483 11.5502 18.2501
511 1 7.87765 13.4479 19.64
587 1 7.92526 15.2939 17.9939
508 1 10.0849 13.0154 18.2963
432 1 9.8899 12.4312 22.4979
675 1 9.88071 15.029 19.4012
2284 1 7.94068 11.5182 21.5871
1305 1 11.8437 11.1649 17.8376
2105 1 12.088 13.7263 20.0077
1385 1 11.7646 14.8464 18.0619
348 1 13.6804 13.2339 18.1494
1308 1 13.7772 15.354 19.4752
2191 1 15.3203 13.4628 19.8865
2112 1 15.3309 11.3959 17.9491
2181 1 15.5067 15.5066 17.9785
2825 1 19.1689 11.2498 18.1879
2036 1 17.2618 10.9259 19.7993
2828 1 19.4351 13.4129 19.5304
2102 1 17.1362 13.0942 18.2509
2905 1 19.5793 15.3568 17.7252
2910 1 17.5402 15.4525 19.4712
3796 1 19.0842 15.201 21.2232
3707 1 23.0601 11.9458 18.2194
2906 1 21.2404 11.2917 20.1101
1150 1 21.1793 13.4128 17.8318
3552 1 23.6821 13.4115 20.0573
3708 1 23.0799 15.5262 17.9186
3787 1 20.7914 15.4849 19.615
4433 1 23.11 11.5404 21.3642
5305 1 25.3933 11.23 20.1763
4505 1 25.0023 13.18 18.3717
4354 1 27.2115 13.1844 19.8739
4589 1 24.9104 15.5296 20.3252
4506 1 25.4476 13.4756 21.5641
4508 1 26.949 15.3816 18.585
5307 1 29.2186 13.3195 18.2187
5226 1 30.9668 13.5692 19.8797
5308 1 30.4757 15.4801 18.1396
5309 1 28.835 14.9526 19.8996
5869 1 31.0946 15.1951 21.7671
6105 1 32.189 13.79 17.6746
5387 1 32.293 15.5701 19.7596
6109 1 32.205 13.2806 21.8007
6107 1 33.8262 13.5525 19.8276
6905 1 35.8796 13.3215 18.0829
6909 1 35.5859 15.5433 19.6227
6108 1 34.1169 15.0403 17.885
7785 1 2.44932 17.2947 18.1413
6987 1 0.724877 17.1293 19.8221
7786 1 2.51798 19.1297 19.4162
6988 1 0.90382 19.0094 17.8214
7787 1 0.748305 19.0165 21.8411
7708 1 4.33586 15.6748 17.9907
7788 1 4.67726 18.707 18.2154
586 1 4.55654 17.2491 19.93
7711 1 6.40176 19.0535 20.0157
590 1 4.2623 18.9892 21.4174
585 1 6.48984 17.0221 18.2008
1387 1 10.6084 14.5239 21.4909
1311 1 8.07964 16.6929 19.8489
588 1 7.94165 19.0391 17.9425
1386 1 9.63179 17.2217 17.8404
591 1 10.0286 18.8305 20.0352
520 1 10.2538 16.7524 21.6128
1590 1 8.54791 18.6495 21.7218
2189 1 11.8859 16.3843 19.9018
1467 1 11.7752 18.4087 18.4205
2985 1 15.3906 16.7988 20.1179
1463 1 13.6212 17.1208 17.7526
2188 1 15.9407 18.6605 18.1216
2108 1 13.9581 18.7422 19.7308
1314 1 12.0037 18.4424 21.1578
1390 1 15.2626 18.6893 21.6026
3785 1 19.0548 17.3079 19.8283
2902 1 17.7591 17.2311 17.6965
2990 1 17.2527 18.9712 19.8188
2988 1 19.2482 19.0649 17.9083
3702 1 21.3953 17.4225 17.6905
2914 1 23.1504 17.0973 19.9152
2987 1 21.4092 18.7255 19.6631
3788 1 22.9434 19.5044 17.9945
4585 1 25.1671 16.9428 18.2483
4587 1 26.6466 17.7472 19.774
4586 1 24.6551 19.0171 19.6676
4588 1 26.9824 18.9176 17.9588
5385 1 28.7422 17.1273 17.8177
5392 1 28.5884 19.0126 19.9611
6271 1 30.2351 17.095 19.8609
5465 1 30.1823 19.1689 18.4127
4592 1 30.6297 19.0832 22.04
6185 1 32.2669 16.9425 17.7969
6186 1 32.2779 19.3329 19.722
5388 1 32.3717 17.7558 21.5605
6187 1 35.4173 17.0923 21.925
6985 1 35.8286 17.4573 17.9889
6986 1 34.2115 17.413 19.6899
6188 1 34.1941 19.416 17.8728
6192 1 35.909 19.0324 19.7035
2932 1 34.4218 19.2716 21.5867
7865 1 2.6889 20.7111 17.5814
7866 1 2.75388 22.9757 19.6827
7067 1 1.21393 21.1428 19.7193
7068 1 1.04375 22.694 17.8646
7070 1 1.32586 22.6528 21.7534
7868 1 4.27603 22.6268 17.9919
7867 1 4.22035 20.7507 19.8999
665 1 6.29491 20.5773 18.2109
666 1 6.25717 22.3633 19.7043
592 1 6.96218 20.7582 21.3939
667 1 8.7153 20.8643 19.8557
668 1 8.08039 22.5156 18.0434
1465 1 10.2223 20.5626 17.8917
1466 1 10.6341 22.5225 19.8407
2752 1 8.43932 22.8847 21.4669
600 1 10.6369 20.5383 21.4728
1472 1 11.7468 22.4684 17.6143
756 1 12.3482 22.3705 21.4806
1470 1 12.0602 20.3539 19.5952
2265 1 13.7328 20.2507 18.1122
2266 1 13.6566 22.726 19.6922
7796 1 13.4524 20.389 21.545
2267 1 15.1374 20.8037 19.939
2268 1 15.8301 22.191 17.7887
3065 1 17.499 20.4927 18.1278
3066 1 19.1971 20.6397 19.9601
2186 1 17.0349 22.6939 19.7698
3068 1 18.9041 22.5696 18.2189
1639 1 19.3344 22.5011 21.1652
3865 1 20.8664 20.5463 18.3358
3867 1 23.5146 21.0568 20.0615
3151 1 21.0821 22.6136 19.5202
3866 1 23.0232 22.1033 18.1617
4665 1 24.9474 20.9673 18.0453
3868 1 24.9186 22.8614 20.0432
4667 1 26.8827 20.8749 19.8396
4743 1 26.7874 22.7032 18.0664
4669 1 26.5896 22.8365 21.9066
5466 1 28.7179 23.1888 19.8672
4668 1 28.7139 20.9885 18.106
5467 1 30.4919 21.1327 19.9247
5468 1 30.2875 22.935 17.9912
6266 1 32.1554 22.8732 19.8803
6265 1 31.8603 21.1982 17.892
7065 1 35.9726 21.2677 18.0535
6269 1 32.2417 20.9308 21.7353
6267 1 34.1553 21.1946 19.8042
7066 1 -0.55199 22.9657 19.8381
6268 1 33.7265 22.4965 17.7921
6272 1 34.0546 22.6716 21.7445
6992 1 36.0023 21.2242 21.6268
7945 1 2.8072 24.9281 18.2473
7946 1 2.81912 26.5846 20.1203
7147 1 0.987274 24.4882 19.7297
7148 1 0.772524 26.2775 18.3205
6353 1 2.73965 24.546 21.4096
7947 1 4.64012 24.4587 19.8322
7948 1 4.54707 26.2426 18.141
745 1 6.5458 24.5289 17.9226
746 1 6.29409 26.4618 19.8872
673 1 6.30644 24.5711 21.4834
7950 1 4.72686 26.1296 21.7748
1547 1 10.4765 24.2895 21.4266
748 1 8.10602 26.4979 17.9232
747 1 8.42391 24.6709 19.8257
752 1 10.0237 26.6394 19.6648
1545 1 10.2369 24.4546 18.188
27 1 8.20914 28.3154 20.1931
1546 1 12.3612 24.4315 19.8643
1548 1 12.1906 26.1544 18.1738
2347 1 15.3921 24.5391 19.8702
2345 1 14.022 24.3853 17.9758
2346 1 13.9426 26.4247 19.9078
1625 1 13.8008 28.1597 18.0542
2196 1 13.5893 28.034 21.7226
1716 1 11.7217 26.3371 21.6009
1627 1 15.5989 26.208 22.4016
2348 1 15.5013 26.3971 18.3058
3145 1 17.0999 24.3195 17.8924
3945 1 19.1223 24.5982 19.9407
3148 1 19.4669 26.2529 18.0611
2352 1 17.0949 26.1368 20.1138
3153 1 19.314 26.516 21.7119
3067 1 17.2289 24.1948 21.7584
3947 1 21.0253 24.2883 18.0221
3147 1 21.1441 26.0581 20.1799
3872 1 22.9749 24.5311 19.5288
3948 1 22.6903 26.4107 18.261
3146 1 21.1759 24.4539 21.657
3159 1 22.9205 26.4258 21.8582
4745 1 24.9457 24.1511 18.0736
4746 1 24.4669 26.1807 19.4682
4747 1 26.7505 24.195 19.9529
4748 1 26.4686 26.5389 18.3301
4749 1 24.5566 24.8263 21.4632
3227 1 24.851 28.3452 18.1116
4106 1 24.6562 27.6696 21.3999
3949 1 26.4044 26.0827 21.5
5545 1 28.6406 24.6294 18.0092
5546 1 28.4897 26.3268 19.8047
5547 1 30.4621 24.7028 19.6888
5548 1 30.2999 26.2384 17.9393
5551 1 28.3824 24.6786 21.7859
5629 1 30.4009 26.3792 21.3376
6345 1 32.3806 24.6502 17.8703
6346 1 32.3335 26.2862 19.5288
5631 1 31.9408 28.6921 21.7628
5389 1 32.1924 24.7891 21.2636
6347 1 34.1713 24.5698 19.6951
7145 1 35.9191 24.4025 17.8757
7146 1 35.8269 26.313 19.9826
6348 1 34.3163 26.6827 18.0888
6351 1 33.7688 26.367 21.6329
6427 1 1.36136 28.7723 20.3819
7225 1 2.793 28.069 18.2496
7228 1 3.08948 30.4973 19.812
6428 1 1.06932 30.0749 18.1162
753 1 2.92622 28.0849 21.8499
6507 1 1.33006 32.6766 19.477
7226 1 3.03576 31.9801 17.7106
7309 1 2.70953 32.07 21.4464
7227 1 4.74484 28.3367 20.0892
25 1 6.30775 28.2142 18.0836
2209 1 11.5146 12.6489 35.3762
26 1 6.36527 29.8417 19.8086
28 1 6.36354 32.5387 17.9378
189 1 4.78839 32.2125 19.6953
29 1 6.62127 28.3694 22.1208
7308 1 6.44945 31.7547 21.5545
826 1 10.5115 28.0246 18.0035
825 1 8.37651 29.4843 18.253
829 1 10.2018 29.7298 19.9161
905 1 10.0742 31.6905 18.0293
107 1 8.02501 31.9295 19.5784
7396 1 10.2355 31.6279 21.6836
2276 1 9.94864 28.0334 21.8308
827 1 12.2397 28.1931 19.6626
907 1 12.453 31.8612 19.7308
828 1 12.0606 30.0429 17.6119
1626 1 13.9582 30.1119 20.0401
1705 1 14.198 31.6976 18.0822
1706 1 15.6707 31.8511 20.1909
1714 1 15.4735 29.9969 21.874
1715 1 13.6402 31.7626 21.8899
1628 1 15.8082 29.7841 18.3158
1632 1 15.5418 28.195 20.2382
2427 1 18.8649 27.9039 19.98
2425 1 17.2984 27.7851 17.9923
2426 1 17.1564 30.1271 20.3296
2428 1 19.1571 30.2574 18.3923
2507 1 17.2384 31.8297 18.3265
2509 1 19.2236 32.187 19.9247
1709 1 17.5494 31.9993 21.6903
2431 1 19.2233 29.977 21.9263
3225 1 20.857 28.4151 18.6354
3946 1 22.6006 28.6001 19.8388
3226 1 21.04 30.5555 20.0117
3228 1 23.0542 30.2228 18.1208
3305 1 21.0118 32.0288 17.9142
3955 1 22.9204 30.3534 21.7309
2513 1 21.1405 28.1275 21.7246
3232 1 20.7979 31.8004 21.8605
4825 1 28.5354 28.2284 17.7714
4027 1 26.5185 28.1251 19.9561
4026 1 24.6824 29.8209 19.9851
4028 1 26.4336 29.9184 18.167
4754 1 26.8429 31.6865 19.8863
5713 1 26.327 29.7502 21.701
4032 1 24.7183 32.0792 21.6516
5625 1 31.8725 27.9944 17.8969
4826 1 28.4954 29.6235 19.8571
5552 1 30.3059 28.4195 19.9178
4828 1 30.3506 30.0611 18.066
5556 1 28.2694 27.9641 21.8623
4832 1 29.8398 30.3352 21.6485
4905 1 28.3016 31.3618 18.1096
4907 1 30.4053 31.8648 19.9351
3307 1 28.2951 32.2799 21.5826
4827 1 32.3058 30.1065 19.5754
5630 1 31.8757 31.3249 21.8161
5627 1 33.6123 28.1087 19.8359
6429 1 35.8313 28.4407 21.4788
5622 1 32.0372 31.824 17.6229
6425 1 -0.504607 28.4042 18.8475
5628 1 34.0698 29.6021 17.7161
6426 1 36.1043 30.6012 19.7087
5705 1 33.9191 31.7073 19.5287
6505 1 35.8373 32.0454 17.8235
5626 1 33.9588 30.177 22.0404
7385 1 2.72877 35.7073 17.8528
6587 1 0.871341 35.4708 19.7616
7306 1 2.80433 34.3284 19.8462
6508 1 1.14821 34.0395 17.7141
7394 1 0.603136 33.6473 21.5387
116 1 3.09288 35.2304 22.041
186 1 6.33214 35.3881 17.6562
7392 1 4.75986 35.5946 19.5495
105 1 4.42229 33.9896 17.7684
110 1 6.28957 33.8597 19.7056
7386 1 6.56662 35.3083 21.752
109 1 4.86257 33.4035 21.8048
106 1 8.45868 35.4869 19.8691
108 1 8.54703 33.6778 18.0771
902 1 10.2575 35.7243 18.0054
912 1 10.379 33.4643 19.6106
187 1 10.1708 35.1944 21.6463
112 1 8.39892 33.49 21.403
908 1 12.4656 33.6263 18.034
989 1 12.1207 35.3466 19.8417
2506 1 15.5481 35.7514 19.9968
1788 1 13.4516 35.7494 17.868
987 1 14.1632 33.3883 19.8248
1708 1 15.5459 34.1919 17.9958
606 1 13.62 35.528 21.7389
1712 1 15.6526 33.8855 21.6517
1630 1 11.9597 33.6891 21.6212
2510 1 17.6501 35.5558 22.0653
2585 1 17.5497 36.1164 18.1676
2587 1 19.3606 35.8383 19.835
2508 1 19.1122 33.5924 18.0671
1707 1 17.6696 33.847 20.0016
2676 1 19.6205 33.892 21.8974
3306 1 22.9295 31.7715 19.7605
3385 1 20.9555 35.5331 18.3345
3387 1 23.1386 35.4568 19.4301
3230 1 21.1046 33.9216 19.8119
3308 1 23.0858 33.1655 18.1958
1720 1 23.148 33.8319 21.3662
2594 1 21.4741 35.7591 21.4151
4105 1 24.9198 31.8125 18.2454
4185 1 25.1123 35.4514 17.7836
4187 1 26.8743 35.5636 19.6187
4109 1 24.8942 33.6375 19.3804
4108 1 26.8245 33.4946 18.0859
4116 1 26.6103 33.6325 21.7549
4364 1 24.9176 35.4181 21.3142
3392 1 28.4723 33.3631 19.667
4985 1 28.2828 35.0791 17.952
4909 1 30.6007 35.508 19.4581
4908 1 29.976 32.9601 17.8934
5706 1 32.09 33.7173 19.3255
5785 1 32.4905 35.5063 17.887
4906 1 28.5046 35.1508 21.097
6593 1 30.1567 33.5907 21.4858
7481 1 32.4485 35.1241 21.0347
6585 1 36.0528 35.3738 17.9364
5787 1 34.1642 35.2422 19.6883
5707 1 35.7363 33.6333 19.7614
5708 1 34.0546 33.855 17.3346
6506 1 33.9185 33.2996 21.3082
5709 1 35.3034 36.1458 21.5956
7399 1 2.93577 0.776361 23.0511
6618 1 0.708731 2.28067 23.4302
3027 1 1.27795 1.03629 25.2273
6385 1 3.55425 2.6709 25.7533
4155 1 0.95072 3.43926 25.7455
7552 1 4.70891 2.17852 23.4141
5563 1 5.59384 0.347225 25.7591
7414 1 6.66834 0.489482 23.2442
35 1 6.66073 2.15756 25.4015
5249 1 7.95735 2.5488 23.2988
281 1 8.23368 0.135581 25.0989
445 1 9.69563 0.524104 23.2507
4790 1 9.89029 2.46217 24.8995
3505 1 12.3705 0.430623 24.9998
136 1 11.7281 2.72731 23.2891
34 1 13.4865 0.87165 23.1447
5401 1 14.7054 0.823951 25.5689
201 1 15.4997 2.03996 23.7442
5332 1 12.8769 2.71787 25.5111
374 1 17.5888 1.05967 23.164
5078 1 19.7446 0.874377 25.0326
835 1 19.5917 2.64181 23.4386
1874 1 17.1659 1.05359 25.4734
834 1 21.2892 1.12603 23.1311
3390 1 22.7296 0.548303 25.2184
6601 1 23.2759 2.27094 23.3645
6281 1 21.563 2.47329 25.7115
3628 1 21.1094 0.49955 26.8525
2201 1 25.3187 0.765245 23.1241
3822 1 24.9496 1.76993 25.1707
7896 1 27.3769 0.51542 25.1113
3156 1 27.064 2.49283 22.8456
1393 1 29.6213 -0.326508 24.7526
5957 1 28.675 0.553013 22.755
4764 1 30.03 2.3378 23.7938
1172 1 31.098 1.81206 25.9183
5880 1 28.8828 2.45155 25.7659
3258 1 32.0883 0.898914 23.2559
4994 1 32.5825 2.7786 24.1142
5724 1 0.713056 -0.297734 22.6042
6589 1 35.2001 1.1078 23.4742
6930 1 -0.462672 1.58926 26.3852
4844 1 34.0352 1.41737 25.2918
7466 1 2.42481 5.93341 21.6453
222 1 2.77352 3.98049 23.3667
5910 1 0.576034 5.69669 23.9643
2919 1 2.68232 4.92711 25.6731
1317 1 0.404129 7.78524 25.0441
7176 1 0.154218 6.06424 26.2764
1487 1 5.09103 4.0694 25.3282
7479 1 4.34241 5.59345 23.5833
273 1 6.32432 4.6129 23.6705
3335 1 6.71895 6.13242 25.4965
3656 1 8.13611 6.10011 23.3188
1791 1 9.78717 4.39863 23.2246
6208 1 8.41138 4.1351 25.2184
3394 1 11.707 4.68358 24.8198
2758 1 9.81497 6.19019 25.0862
7428 1 11.6349 7.94447 25.1139
1477 1 11.9648 6.27219 23.1483
271 1 13.8163 4.09824 23.5794
3555 1 13.6631 6.00457 25.1079
1872 1 15.7385 6.1364 23.2037
1062 1 15.6479 3.20047 25.5673
3472 1 15.3773 7.61016 25.6777
1071 1 17.4901 5.63767 21.9692
2512 1 17.2756 3.95749 23.5353
4998 1 19.3042 6.22563 22.9644
7417 1 17.6196 5.96661 24.7489
4110 1 19.9626 4.48539 24.9901
4353 1 19.4912 7.68619 25.0191
4775 1 21.8008 6.47988 24.5164
4351 1 21.7032 4.3667 23.2809
3467 1 23.649 5.78766 23.0065
4057 1 23.551 3.77964 25.3323
7259 1 25.4432 5.23833 24.5233
2109 1 24.9237 3.67752 23.0798
5400 1 27.1139 5.50468 23.1608
4694 1 26.7311 3.28106 25.0434
6356 1 28.4808 5.384 25.5731
5146 1 30.3245 4.09849 21.2383
6514 1 28.8785 4.21368 23.1193
5951 1 30.6747 5.43165 23.4259
838 1 30.5993 4.47554 25.9104
4271 1 32.6685 6.44488 27.1618
4916 1 32.0835 6.0831 25.0632
6750 1 35.8459 5.8283 22.0987
7316 1 34.5044 5.89782 25.7072
1333 1 34.1073 4.87952 23.3311
6671 1 35.2327 3.5494 25.2559
7391 1 34.9724 7.30189 23.8486
4762 1 33.7064 8.1606 25.73
914 1 33.128 4.06671 25.9692
6747 1 0.522924 7.48503 22.1855
7547 1 0.451877 9.7398 23.7329
7546 1 2.77234 7.55345 23.8201
6756 1 2.40765 11.5701 23.5484
7551 1 2.49769 11.949 27.0225
357 1 2.45385 9.74748 24.7408
7724 1 0.956383 11.7169 25.0662
3878 1 4.8776 8.11224 24.7989
349 1 4.11525 7.64199 21.4366
6764 1 6.15537 7.77856 22.961
1068 1 4.10185 9.77984 23.1621
4551 1 6.94401 10.3795 25.194
1422 1 6.34529 8.26604 27.0411
6633 1 4.46941 11.7552 24.8304
596 1 12.302 11.6122 21.965
1147 1 9.89649 8.01128 23.4563
7476 1 8.70052 10.3564 23.6139
510 1 9.67061 9.73858 25.9149
7715 1 7.98336 8.01577 24.6802
2804 1 13.8958 9.94199 21.8324
430 1 15.6448 8.10314 21.7488
433 1 11.7113 9.83068 23.8077
913 1 13.9297 7.96758 23.7491
2751 1 16.0678 9.98402 23.831
3726 1 13.5112 9.71776 25.2962
3493 1 13.8888 11.5551 23.6614
2747 1 15.7175 11.3058 21.6823
2028 1 17.729 9.71755 21.8995
2748 1 17.1875 7.78771 23.4533
5234 1 17.5487 11.9012 23.1821
2838 1 18.9818 10.0692 23.9053
6919 1 19.9291 11.8282 25.0297
3706 1 20.6971 8.15741 23.3067
1152 1 21.4392 9.56289 24.8961
4432 1 22.8821 9.90052 22.9526
2194 1 23.4572 8.13286 24.5896
1316 1 21.5173 11.8187 23.4529
4347 1 27.0201 7.78938 21.2658
3007 1 27.5542 11.8215 21.871
4130 1 25.6995 7.31141 23.3583
1095 1 26.4259 7.31717 25.7854
4673 1 27.3219 9.65834 22.7533
4113 1 25.2198 9.95991 24.6314
4845 1 27.0798 11.592 24.9273
6841 1 26.8614 9.51758 26.192
4270 1 30.2626 7.39937 21.8438
5946 1 32.3764 10.1339 21.7359
2916 1 30.4859 11.6774 21.9773
2698 1 30.1674 7.18641 24.7456
6831 1 28.472 9.02258 24.8287
3797 1 28.3929 7.56368 23.0095
6994 1 30.3411 9.27491 23.3962
3241 1 29.2525 11.525 25.655
5310 1 29.0223 11.3597 23.6086
6746 1 35.9114 9.58069 22.0465
6026 1 34.0993 11.569 21.6354
6038 1 32.1373 7.54253 23.482
3711 1 31.516 8.932 25.4682
1718 1 33.4708 9.46318 23.6257
7882 1 35.1975 9.8806 24.8726
5719 1 31.358 11.1552 24.3196
7242 1 33.5432 11.364 26.0827
7873 1 35.6097 11.8096 23.4631
518 1 0.548556 13.2163 23.4287
682 1 2.43171 13.9025 24.7317
351 1 2.54308 15.5541 23.0541
521 1 0.186848 14.9498 24.7175
509 1 5.97116 13.5624 21.2102
431 1 4.54739 15.8261 21.7023
7313 1 6.28132 12.2402 23.4009
355 1 4.24949 13.7164 22.9253
593 1 6.35245 15.0557 23.1162
7409 1 4.29891 15.0832 25.0738
757 1 6.28091 13.1321 25.6382
6776 1 8.69254 12.5381 25.1828
7723 1 11.0796 11.9978 24.4493
1232 1 10.0279 14.3074 27.076
3477 1 10.2491 13.8121 24.5617
1332 1 12.4878 13.6647 23.6511
2593 1 7.90533 13.166 27.4547
1233 1 13.7199 13.5006 21.7417
1721 1 11.8274 11.8542 26.6731
6851 1 15.5543 11.3899 25.6593
5340 1 14.3948 13.4136 24.841
5319 1 15.6454 13.1358 23.0874
3720 1 12.623 13.9152 26.0873
2114 1 19.175 11.4955 20.9146
2107 1 17.3869 13.2014 21.1615
3721 1 19.6386 13.2591 22.4245
3077 1 17.1392 13.3578 25.4916
517 1 17.3447 14.5033 23.028
3791 1 21.3274 13.3893 21.0161
2273 1 23.0526 15.6894 21.9086
2026 1 23.4784 11.3544 24.7655
910 1 20.5562 15.3792 22.9207
3478 1 23.2695 13.6312 22.7117
7637 1 23.9971 15.1485 24.7418
4594 1 22.1591 16.0868 24.4564
4512 1 27.2085 15.4449 21.2959
5876 1 25.1998 11.4946 22.7141
3269 1 24.9615 13.0491 24.9103
5398 1 25.2943 15.3635 22.9731
7485 1 26.6056 13.5798 23.5069
2375 1 26.7643 15.3467 25.106
3627 1 29.1395 13.7515 21.9339
6193 1 30.5151 13.4983 23.6155
2290 1 28.8072 15.6022 23.3955
6112 1 32.5687 14.9858 23.9515
5152 1 28.7068 13.75 24.8917
2223 1 30.3987 15.7259 25.4532
225 1 31.3329 13.565 26.1476
5399 1 35.4797 13.5498 21.6352
6913 1 33.56 15.5496 21.913
5722 1 35.5219 12.9465 25.4229
4194 1 34.5209 14.8578 25.5498
2612 1 33.3845 12.5991 23.908
6106 1 35.0602 14.9047 23.3447
7707 1 2.51899 17.3818 21.508
7789 1 2.33951 16.691 25.563
5469 1 2.58138 19.0924 23.8688
6040 1 0.712633 17.0814 23.2444
1040 1 0.783793 18.577 25.4116
1441 1 3.04217 18.6637 26.4216
674 1 6.30304 17.3462 21.5275
6749 1 4.18309 17.4138 23.4611
7790 1 6.31879 16.4222 25.0282
7884 1 6.54163 18.5305 23.2318
291 1 5.18722 18.5803 25.4535
1473 1 8.36735 14.4351 21.9138
7712 1 8.11421 14.8468 25.231
6360 1 8.52752 16.5358 23.3951
1392 1 11.2126 16.1141 23.618
4203 1 9.17711 16.7968 26.0127
755 1 7.93565 18.4698 25.0441
1397 1 12.935 16.0489 21.8424
1564 1 13.4321 15.9525 24.4525
133 1 12.8966 17.9844 23.3177
6189 1 13.6122 17.4517 26.3159
1918 1 15.5628 17.1602 24.2059
7725 1 15.2273 15.7927 26.0431
2453 1 11.1082 18.278 25.289
2183 1 15.2307 15.2381 22.7856
2030 1 17.0191 16.6525 21.7393
3786 1 19.357 18.885 21.4138
930 1 17.5187 16.2526 24.9934
2865 1 19.4668 14.6272 24.8766
3953 1 17.3466 18.2849 23.1647
2187 1 19.4928 17.2878 23.8262
1480 1 16.8074 18.3832 26.1687
2908 1 21.2842 17.3054 21.5679
2992 1 23.2396 18.9783 21.4806
3071 1 23.2033 17.9344 23.6969
3975 1 19.7028 19.3014 25.7147
2986 1 21.073 18.7374 23.2425
6059 1 23.5339 19.8906 25.1821
5306 1 26.8893 19.2219 21.8191
6209 1 24.8558 17.4678 21.745
5473 1 25.0232 17.5141 24.9806
5472 1 25.1873 19.3189 23.4647
5233 1 26.3543 19.5223 25.3758
4609 1 26.5839 17.3249 23.1776
5322 1 28.875 17.057 21.6372
4597 1 28.5163 18.4762 23.4167
7268 1 28.3021 17.1367 25.4004
5391 1 30.7946 17.1626 23.4842
7898 1 30.1952 18.5615 25.788
4666 1 32.4477 16.9921 25.3707
5506 1 32.0637 19.0667 24.3905
131 1 35.6339 19.0704 23.3804
6113 1 33.6669 17.4179 23.5146
7955 1 34.0386 19.13 25.6255
429 1 35.2088 16.7708 24.9736
7794 1 2.52146 20.5461 21.868
5416 1 0.727319 20.9871 23.7204
7162 1 0.261654 22.9857 25.8003
6990 1 2.97218 22.4124 23.4627
3790 1 2.30945 21.6817 25.6044
749 1 4.4128 22.5399 21.6425
7871 1 6.40156 22.6578 23.0776
2044 1 5.1286 20.5186 23.1819
677 1 7.00486 20.8832 25.299
5802 1 4.55763 22.8894 25.2353
7800 1 8.8635 20.7416 23.1779
1883 1 10.2169 18.2146 23.2035
670 1 8.36351 22.5815 25.1426
832 1 10.5552 22.4197 23.2185
7792 1 9.69871 20.3672 25.1993
6511 1 12.0244 21.871 25.586
6670 1 11.7187 20.1941 23.582
1391 1 15.2209 19.497 24.1201
5710 1 12.9158 19.6825 25.4789
2915 1 14.5857 21.6565 25.6046
1471 1 14.1731 21.4986 23.5263
4561 1 17.1709 20.6397 21.7652
2349 1 15.1272 22.7321 21.5237
669 1 14.9464 19.4984 26.9405
1559 1 19.4245 20.6143 23.2244
285 1 18.7077 22.8444 23.9761
5408 1 16.4274 22.0654 23.7894
6998 1 17.4934 20.1598 24.6239
4590 1 23.0532 22.9641 21.5813
3152 1 21.2249 20.7052 24.5559
5477 1 21.3258 20.7776 21.4186
4910 1 20.7538 22.8373 23.1301
7003 1 23.1907 20.9826 22.9593
4632 1 23.0698 22.9603 25.0794
5555 1 28.7424 20.855 21.7575
3792 1 25.0625 21.0015 21.7354
3812 1 24.9553 21.5132 25.7355
3235 1 24.7605 22.6671 23.4861
4671 1 27.0866 21.1018 23.4575
919 1 27.0109 22.9126 25.589
6273 1 30.3384 22.7004 21.6814
5790 1 28.9919 22.4609 23.803
2874 1 28.293 20.5718 25.1998
6996 1 30.5069 20.9557 23.5096
5312 1 30.4599 22.6713 25.9615
6430 1 32.2601 22.8885 23.6481
37 1 32.4011 21.634 25.7467
2292 1 35.2346 21.0574 25.367
1337 1 33.4586 20.8009 23.6473
7073 1 36.036 22.7728 23.6385
7342 1 34.0646 23.2917 25.3401
7236 1 0.917617 26.383 21.2917
1389 1 2.26209 24.2453 25.5424
114 1 3.04518 26.2522 23.3478
6517 1 1.06815 24.5246 23.43
6524 1 0.995418 26.3555 25.0713
7951 1 4.26551 24.0836 23.4964
2190 1 6.3632 24.461 24.9639
5313 1 4.56144 25.8745 24.9255
1001 1 6.57085 26.2219 23.1212
3476 1 6.6887 27.9736 24.74
830 1 8.38218 26.1901 21.5671
1239 1 10.4121 23.6275 25.2413
672 1 8.07613 24.5538 23.2478
1414 1 8.27238 25.8669 25.28
1553 1 10.1675 25.825 23.7405
3892 1 8.43798 28.006 23.3952
2192 1 13.8604 24.804 21.7175
751 1 12.3003 23.755 23.6332
2760 1 11.8741 25.7628 25.4301
3160 1 11.5215 28.2075 23.658
6836 1 12.9496 23.8305 26.0937
2430 1 13.3783 26.4403 23.4993
2521 1 14.9694 26.1009 24.9073
2218 1 14.7772 23.8741 23.6659
3959 1 19.2681 24.8456 23.283
1554 1 17.6427 26.7164 23.8729
5904 1 16.9129 24.2127 24.2323
1551 1 19.3672 25.7341 25.3478
3072 1 22.9154 24.401 23.2052
4031 1 20.9862 26.5313 23.5287
5491 1 23.0326 26.0972 24.9239
5403 1 20.6639 23.6861 25.5544
6455 1 24.9974 26.253 23.515
4040 1 26.963 24.6894 23.8223
6679 1 24.8845 24.3212 25.0395
1158 1 26.5751 26.2113 25.3872
1794 1 28.5002 26.3692 23.4528
7082 1 30.3605 24.6121 23.4088
2534 1 30.0571 26.5558 25.2825
6435 1 28.6084 24.7567 25.5842
5478 1 30.1576 28.292 23.6769
7149 1 36.003 24.4262 21.7423
2590 1 32.1159 26.6421 23.4478
6349 1 33.9001 24.7181 23.0423
4369 1 35.6108 24.8738 25.7204
6352 1 35.7948 26.3703 22.9609
6711 1 34.2397 26.3894 24.6971
7387 1 35.9544 28.0822 24.785
4204 1 32.0218 24.7584 25.3485
7744 1 0.850227 28.1364 23.1191
1901 1 2.52591 28.1182 24.8096
6432 1 1.1234 30.2672 21.8786
113 1 2.63159 30.3461 23.5105
4768 1 1.03758 30.0971 25.3214
2680 1 2.891 31.8761 25.5538
7311 1 4.48789 30.1105 21.799
4919 1 4.64957 30.1113 25.1627
2848 1 4.68948 28.0517 23.6829
1306 1 6.48861 30.2135 23.5117
5017 1 6.21648 32.0243 25.5598
38 1 9.91951 27.9956 25.3225
36 1 8.36478 30.3185 21.5989
7247 1 8.14468 30.2207 25.4019
2359 1 10.0163 29.9357 23.5517
7271 1 10.4089 31.5226 25.4032
7872 1 8.1218 31.9841 23.4463
1557 1 12.2627 29.7161 21.4469
3080 1 13.741 27.9292 25.5733
3815 1 11.9906 29.5941 25.5455
915 1 13.7063 29.9928 23.7949
4771 1 15.6014 31.5936 23.5487
2702 1 15.6034 29.564 25.1112
7390 1 12.2058 31.5198 23.5068
1710 1 17.2989 27.9994 21.8971
1711 1 19.4109 28.3288 23.7243
6404 1 15.0033 28.1362 23.5511
4281 1 17.6181 28.4845 25.795
7234 1 17.0773 29.4271 23.5855
44 1 19.5707 29.7879 25.3638
4835 1 19.1731 31.6251 23.4538
4830 1 21.4554 28.213 25.2828
3239 1 23.4049 28.1514 23.43
2433 1 21.1874 30.0978 23.5948
5252 1 22.941 30.1997 25.2008
3869 1 24.8523 27.8156 25.4998
4601 1 26.4115 28.3546 23.4213
7094 1 26.4729 29.9837 25.4735
3069 1 24.7219 30.2185 23.5727
6110 1 24.9883 31.9318 25.4628
5816 1 26.483 31.8905 23.4583
7009 1 27.5486 29.3047 27.7714
2286 1 28.2298 28.4233 25.3186
7726 1 28.3796 30.4523 23.2293
5791 1 30.1882 30.2234 25.2219
5173 1 32.3422 28.016 25.482
6861 1 30.3829 31.9125 23.7584
5560 1 31.4246 32.0575 26.0903
6509 1 35.86 31.3064 21.8346
6512 1 32.0101 29.8957 23.7527
6434 1 34.0985 28.4091 23.4478
7168 1 35.5894 30.5396 24.3287
684 1 33.9322 29.6541 25.7217
4481 1 35.7132 33.2536 25.0309
5497 1 33.8426 31.8856 23.4098
7557 1 0.492634 32.1212 23.5732
7312 1 2.97614 35.7294 25.2453
115 1 4.32733 -0.511943 27.4727
7401 1 2.51532 33.1624 23.417
6938 1 0.896695 34.7329 23.8443
6699 1 1.36098 33.8356 25.9786
7232 1 4.48859 31.8021 23.6308
5716 1 6.67893 34.6049 25.8039
2913 1 4.4274 33.9297 24.9485
4838 1 4.92859 35.5539 23.5381
5633 1 6.5146 33.5925 23.4717
2391 1 6.61891 35.283 27.8376
909 1 8.17059 35.0607 23.4167
1479 1 8.41799 33.3918 25.117
1074 1 10.0676 35.6032 25.2234
32 1 10.6646 33.1632 24.0163
4299 1 14.107 31.5724 25.3705
2696 1 12.3933 33.5789 25.7507
3401 1 11.8863 35.4005 23.211
7680 1 13.8603 35.2641 25.4282
916 1 15.4371 35.4724 23.6083
3315 1 13.5356 33.3545 23.6609
1823 1 15.598 33.4374 25.4373
294 1 17.1142 31.7276 25.3439
993 1 17.421 33.3612 23.6488
4120 1 20.0332 35.8952 23.3193
1558 1 18.107 35.6495 24.9215
1877 1 19.6027 33.8516 24.7517
3952 1 22.9337 32.0694 23.4516
3879 1 21.0579 32.0949 24.9396
1157 1 20.6626 35.365 25.7474
4115 1 22.9853 35.9126 23.2898
3957 1 21.6556 33.9489 23.4936
454 1 22.8676 34.3074 25.4637
4112 1 26.9595 35.6168 23.301
4189 1 24.499 33.9477 23.4821
3317 1 25.0183 36.0237 25.0413
2771 1 26.4929 34.3042 25.0278
4918 1 28.4691 32.1432 25.3833
5069 1 28.2218 35.0289 26.2731
4987 1 28.8728 33.9637 23.3733
5330 1 30.9147 34.0025 24.9421
148 1 30.8868 35.6595 22.8332
7469 1 32.1092 33.3589 23.0099
4191 1 36.1416 -0.552086 24.7763
5174 1 32.0263 -0.49953 24.9744
1476 1 33.5196 35.345 23.3945
5550 1 35.369 34.0842 22.9639
2133 1 33.4014 33.8954 24.9626
3633 1 2.10189 0.714661 27.4715
2949 1 35.888 3.9803 29.9292
5578 1 3.27732 0.977435 29.4826
7963 1 -0.507327 1.36209 28.72
4991 1 2.49195 35.0003 27.7649
6612 1 3.91063 -0.136654 31.4459
841 1 5.11775 1.77901 27.6415
5079 1 7.52736 0.925853 27.507
524 1 7.14439 -0.441793 31.2434
5072 1 5.48364 2.69423 30.0516
7001 1 3.82125 2.3408 31.7194
6995 1 8.9521 -0.326083 30.0834
2757 1 8.73018 2.70781 27.4601
2683 1 10.2938 1.96435 29.4322
1146 1 7.811 1.46888 29.7778
6515 1 10.3031 0.86747 26.612
1635 1 12.8863 0.980653 29.8352
358 1 11.1271 35.9894 29.0975
4753 1 10.9655 0.366104 31.2594
6779 1 11.3522 2.88691 31.3625
4780 1 14.2816 2.23011 27.4052
3154 1 12.3578 0.892092 27.5642
389 1 14.2851 -0.401404 28.9418
356 1 12.6664 3.26151 28.9147
1742 1 15.2273 1.67739 29.7533
918 1 13.4131 4.86405 27.353
7480 1 16.4146 36.1018 29.332
7499 1 16.6251 1.61772 27.693
5508 1 19.6649 1.02717 29.2249
7647 1 17.5182 3.61557 27.9387
1567 1 18.9966 4.23131 29.9575
2705 1 18.0524 3.00425 25.55
1145 1 19.7766 2.86874 27.412
3639 1 18.4109 35.3628 30.0652
7335 1 22.4403 2.7946 27.7512
7020 1 22.9034 0.651756 29.4705
5240 1 21.2707 2.651 29.7974
1969 1 24.2075 2.91942 29.3808
4196 1 20.5174 4.95274 28.4027
4546 1 20.7335 0.218993 31.2813
3960 1 23.9088 0.915113 27.2238
4434 1 26.8041 2.07363 27.1495
5429 1 28.6157 2.5337 29.9658
2195 1 25.5056 0.962751 29.3513
2205 1 26.5389 -0.177027 27.5417
1837 1 28.7946 0.770494 27.3488
2070 1 30.5098 2.39839 28.023
1474 1 30.8329 3.62083 30.3734
5553 1 32.4968 0.819074 27.5447
6037 1 28.9846 3.97748 31.7715
5574 1 32.5278 3.90079 28.1995
5010 1 33.1858 4.23056 30.4924
6114 1 29.0008 0.56519 31.5493
5711 1 32.8959 2.00324 29.5912
2143 1 34.0057 35.8884 27.0201
5795 1 34.2723 2.3036 27.4308
4059 1 34.9213 -0.491191 28.9037
1250 1 1.7108 3.13148 27.9869
5483 1 2.38691 7.76621 26.1224
5879 1 36.054 4.04116 27.3898
1156 1 2.5996 5.37216 27.8007
3406 1 0.503703 5.54333 28.6583
4778 1 2.85625 4.23883 30.2137
7588 1 5.11437 4.98725 30.3825
2537 1 5.44692 6.53398 28.4479
3638 1 7.50109 3.45083 31.5038
220 1 4.31636 3.96664 28.0276
6844 1 6.77204 4.01479 28.153
5002 1 8.79095 4.93009 27.4883
5075 1 4.63612 6.03581 26.1787
5352 1 7.49867 5.53694 29.9023
1964 1 11.0187 2.95978 27.202
7905 1 9.86371 5.07801 31.7103
1713 1 8.88064 3.86907 29.8392
1315 1 10.8764 5.38696 26.9319
4205 1 15.7234 5.30444 25.8489
2686 1 15.2367 3.76634 28.7079
7584 1 11.0183 4.44005 29.8328
1642 1 12.3847 6.3619 29.0154
5800 1 14.6639 5.96255 30.1891
763 1 17.2461 6.92337 27.4067
7473 1 19.5203 7.956 27.2418
1871 1 16.9193 5.67002 29.4066
759 1 18.8154 5.34063 26.7223
5484 1 19.1142 6.77718 29.3613
4610 1 24.2573 6.46095 26.2749
6555 1 23.4293 4.9368 28.2722
4870 1 21.4619 7.21479 29.0747
3244 1 21.8329 5.12485 26.332
1801 1 22.5432 4.76887 30.272
3795 1 23.8977 7.3185 28.7825
1646 1 20.7649 6.32469 31.5862
3805 1 25.2128 3.5358 26.8261
610 1 24.3448 4.55256 31.8357
7716 1 26.3536 3.88891 29.0343
212 1 28.2732 5.59841 29.7048
3310 1 25.5699 5.8046 28.0359
1643 1 27.909 4.14238 27.183
2920 1 28.0858 6.33026 27.4649
6031 1 30.0248 4.79374 28.2703
3009 1 32.1056 8.77274 27.6959
2522 1 29.4792 7.68566 29.0036
437 1 30.481 7.16267 26.9777
7436 1 30.3873 5.67174 30.9354
142 1 31.9975 6.20477 29.418
5023 1 29.2691 9.37959 27.0392
4049 1 0.101114 7.40106 30.0803
1891 1 34.5128 5.50495 28.53
6308 1 33.8944 7.93497 29.5852
2957 1 35.0096 5.92125 30.8957
3886 1 1.53409 7.59863 28.4223
5324 1 2.10272 8.2378 31.1804
1177 1 2.85896 9.73983 28.7434
3313 1 35.7122 7.286 27.8201
6609 1 4.16023 8.65307 32.0837
4123 1 2.91593 11.0055 30.8193
6120 1 3.97027 9.83465 26.615
513 1 7.37825 7.25796 28.722
6370 1 3.82186 7.75983 27.8165
4439 1 5.57669 7.71946 30.3882
4603 1 5.27335 10.4489 30.8608
3641 1 5.63215 9.59787 28.5592
4285 1 8.54429 7.16041 26.9106
2439 1 10.7231 7.72057 27.151
33 1 9.47463 6.55514 29.1612
2185 1 9.51418 8.85806 29.4354
3325 1 11.6279 9.51808 28.0941
911 1 10.8472 7.08478 31.0212
5717 1 7.36631 9.24745 30.3168
7824 1 13.3402 8.03161 31.1794
6690 1 15.545 9.50816 26.9649
3078 1 13.4025 7.80425 26.715
7337 1 13.5793 10.3226 31.1958
6270 1 13.0412 8.55818 29.1792
3114 1 15.1484 9.848 29.3819
4519 1 13.6595 10.8738 27.7415
7482 1 15.8372 9.9274 31.6306
6381 1 17.6329 9.04325 25.4052
1099 1 14.9696 6.48843 27.9363
2839 1 20.2812 10.3128 27.2153
3314 1 17.8044 9.57675 28.1216
2215 1 19.7774 9.40089 29.2547
937 1 18.0195 10.1063 30.5635
1010 1 24.7916 8.75689 26.7563
2538 1 21.7038 7.91921 26.5628
1876 1 22.1824 9.29786 28.6739
3731 1 22.2644 10.7255 26.7319
6301 1 21.5466 8.47313 30.9955
1946 1 25.0642 8.776 30.0901
7171 1 27.4369 8.61813 30.2495
2991 1 27.1718 8.21324 28.2228
1810 1 26.5321 10.2627 28.5486
4429 1 29 10.0652 31.6195
7071 1 26.5825 10.5348 31.1532
5164 1 24.9381 11.3002 26.7445
4034 1 31.4426 11.09 26.778
7714 1 28.7982 10.2164 29.2136
4515 1 31.0607 9.20407 30.2839
2942 1 30.5721 11.3857 29.4979
1241 1 28.8221 12.2712 27.8961
5425 1 1.12091 9.96624 26.7762
1143 1 32.9407 10.9555 28.5575
1502 1 -0.0261943 9.58247 29.059
6770 1 33.0882 9.85073 31.0929
6914 1 32.5454 12.1799 30.6644
4426 1 34.732 9.64534 27.7505
5009 1 1.11268 11.4965 28.9719
3634 1 0.53053 13.6623 26.9618
7892 1 2.53036 13.341 29.2382
6910 1 4.44635 13.4765 26.8521
3989 1 2.68636 14.6926 27.1058
4267 1 0.182619 11.5705 31.4445
6765 1 4.43355 11.8795 29.1757
3635 1 5.9054 11.7027 27.3036
6276 1 7.29328 11.7039 29.4332
2270 1 6.15173 15.0196 27.118
6035 1 4.75282 14.5148 28.9385
3969 1 5.25734 15.285 31.3431
2842 1 9.6429 11.0666 30.3812
7639 1 7.02349 14.3665 29.7497
6751 1 9.77574 11.6722 28.1061
2833 1 7.87409 10.493 27.4327
3180 1 11.6813 13.4314 28.7734
603 1 9.34829 14.0055 29.2722
5256 1 12.1244 11.1068 29.6663
917 1 14.7124 13.1348 27.0432
7393 1 16.041 14.2845 28.4766
7629 1 14.0044 12.4615 29.5202
7589 1 13.4465 15.2472 27.9783
7500 1 16.1551 12.1543 30.3804
5950 1 16.575 11.9132 28.1611
7742 1 19.2842 11.8904 28.907
2589 1 17.7388 11.01 26.2929
1469 1 16.3278 13.5465 32.4435
4854 1 18.7661 13.192 27.3154
4841 1 17.5335 13.9974 30.2987
1231 1 21.1666 15.0613 26.6789
4834 1 23.9263 10.7234 28.9769
5489 1 21.4806 11.3627 29.568
3800 1 21.0994 12.6123 27.6387
2401 1 21.8743 13.4907 24.9794
594 1 23.53 13.2375 26.8957
5659 1 23.1237 13.0732 29.7744
3709 1 25.2565 13.2988 28.8748
3079 1 26.665 12.9611 27.069
7673 1 27.4134 12.3773 29.6785
1235 1 24.409 15.244 29.8382
3018 1 26.4502 14.4947 31.0034
7095 1 27.2683 14.8119 28.897
5076 1 28.3669 15.0593 26.8903
5870 1 31.7486 13.2642 28.6437
3008 1 30.0423 14.6131 28.3765
5746 1 28.735 14.1626 30.7086
7078 1 30.9015 15.6537 30.0674
5171 1 35.4946 14.8357 27.9557
5958 1 34.8794 11.0852 30.15
6906 1 -0.482148 13.205 29.682
5232 1 36.0852 11.5583 27.4675
1489 1 33.9709 13.4526 29.1693
1799 1 33.4031 13.6487 27.1263
6274 1 33.8356 15.839 29.6082
4755 1 32.2155 15.6733 27.5335
7340 1 0.0983886 16.2709 26.8108
1549 1 0.883113 15.138 29.2267
6675 1 2.72295 15.4074 30.766
7408 1 1.50663 18.4624 30.6365
1160 1 3.17768 20.0851 30.2028
5395 1 1.54962 17.7764 28.0243
1961 1 4.49402 16.816 26.9519
4713 1 4.77004 18.7975 28.2867
1094 1 6.47162 16.6375 29.211
3395 1 7.16256 17.628 26.9167
6275 1 3.06741 16.3415 28.7199
698 1 6.78148 18.886 29.6316
5098 1 8.77613 17.2558 29.4441
1792 1 8.45117 15.6141 27.8765
3661 1 9.45077 18.641 27.55
4924 1 11.1541 16.4834 28.2977
6782 1 10.7452 18.6881 29.4812
3794 1 10.3868 16.0564 30.7518
7713 1 11.3755 15.7995 26.2484
3572 1 12.7628 17.3102 30.1052
2989 1 13.7941 19.4218 29.098
3951 1 12.2946 18.4452 27.7311
2934 1 14.3202 17.2774 28.6469
2456 1 15.052 17.3381 31.7699
287 1 17.621 16.1795 27.7858
602 1 19.4217 16.7852 26.2633
7182 1 16.2843 16.1112 29.8996
4756 1 16.3545 18.5233 28.5455
6355 1 19.1269 17.9492 28.1761
624 1 19.5674 14.9888 28.3017
2601 1 18.3782 20.0745 29.8408
2517 1 24.1171 17.3621 27.4091
2126 1 22.4834 15.2137 28.5177
3876 1 21.7297 17.9877 25.4935
2703 1 22.92 17.2718 30.115
3906 1 21.4034 17.259 27.7409
3181 1 22.5554 19.3605 28.0753
4475 1 24.9182 19.6497 27.3638
6190 1 25.2355 15.0835 27.0916
955 1 26.5726 17.1478 27.0476
1819 1 24.725 18.8708 29.8222
4861 1 26.3822 16.9493 29.5331
4521 1 28.9609 16.9311 30.3075
6200 1 26.9395 19.6112 29.2416
2835 1 28.3711 18.871 27.0412
3167 1 30.3256 17.0412 27.4786
6278 1 29.7922 18.9414 29.179
2207 1 32.3887 18.4436 27.1543
5549 1 32.1412 17.4232 29.0135
5311 1 35.9168 18.6286 26.8934
4039 1 34.3979 16.8841 27.3055
1085 1 -0.521807 17.0225 28.8891
193 1 34.5185 18.7144 29.0766
7709 1 0.170359 20.6964 27.362
2912 1 2.30947 20.1937 27.8166
7989 1 0.0196731 23.7698 29.682
7874 1 1.27419 22.689 27.7533
2690 1 35.385 23.1609 27.3873
1078 1 1.73339 21.9623 29.901
612 1 1.63838 24.201 31.1976
6433 1 4.44547 20.5616 26.6078
135 1 5.64476 20.8989 29.2084
3320 1 3.54417 22.2919 27.778
1873 1 6.03805 22.6592 27.3208
3575 1 7.3333 20.0032 27.4597
447 1 11.0122 20.3359 27.2035
7423 1 7.4854 22.332 29.3151
6785 1 8.91484 22.0109 27.5252
1735 1 9.64696 22.581 30.261
1885 1 8.68235 20.3612 29.4977
4222 1 13.1831 20.9752 27.5637
7730 1 14.4433 21.5536 30.4397
452 1 13.0445 23.0425 29.2207
1159 1 11.6739 20.9203 29.3236
5960 1 11.2031 22.8804 27.4908
3504 1 18.01 19.8911 27.5177
2677 1 16.1248 20.8945 28.3404
4470 1 17.2363 22.1559 30.9786
1032 1 19.9411 21.1166 31.1113
3487 1 16.1728 19.6433 30.5045
4556 1 20.5034 20.337 27.7419
4672 1 20.3541 19.0211 29.9404
7002 1 22.5654 20.1082 30.3275
764 1 19.069 21.5837 26.3927
3022 1 22.0028 22.1071 27.1172
2938 1 22.839 23.9625 29.6005
4201 1 21.6895 22.0428 29.4596
5744 1 23.9424 21.5455 28.4167
4757 1 24.0773 22.5361 30.8056
5972 1 27.1156 20.9454 27.5264
2524 1 24.3508 23.3855 27.2001
1565 1 26.4302 22.8423 28.829
4276 1 28.7154 24.012 29.4778
754 1 29.6698 20.645 27.2312
5236 1 28.4495 23.0232 27.498
5918 1 30.6716 21.3943 30.7485
6753 1 28.4211 21.2556 29.4937
689 1 30.5279 22.749 28.7463
3986 1 30.5878 24.7269 27.2608
1730 1 32.9295 19.7337 30.1998
1419 1 32.0304 20.5647 27.9341
529 1 32.545 22.0983 29.9551
6443 1 34.9841 21.4484 29.5991
5641 1 34.3242 20.4696 27.4497
5162 1 32.8276 22.9245 27.5863
6134 1 34.3769 24.3737 29.7189
5558 1 2.65234 24.201 29.1395
4231 1 2.7902 26.44 27.058
5755 1 0.756088 24.8727 27.5384
5804 1 0.166589 26.1504 29.9552
1601 1 35.6445 28.6111 29.1382
906 1 5.83328 24.3416 28.9732
5242 1 4.65505 26.6459 28.8702
7952 1 4.17227 24.7204 27.189
4356 1 6.54483 26.281 26.5576
7163 1 6.19302 28.1453 28.2352
7434 1 7.268 25.9344 28.7336
6774 1 4.52032 28.111 26.3089
1309 1 9.30755 24.2089 28.5185
2106 1 10.0179 25.6199 26.8212
2073 1 7.54711 24.2024 26.8552
604 1 9.53955 26.4049 29.422
3161 1 8.4101 27.9883 27.0045
5241 1 11.1001 24.7095 30.2184
5956 1 15.1099 24.1591 26.0336
6214 1 13.4168 27.0297 28.1926
4715 1 16.234 26.0816 29.9334
5108 1 12.2134 24.912 28.0123
5404 1 14.8332 24.9479 28.1973
5020 1 15.0661 23.7351 30.6116
141 1 13.601 25.5639 30.0819
6931 1 14.6768 22.4367 27.8956
5596 1 16.9201 22.069 26.2045
7330 1 18.897 21.9471 28.7389
117 1 16.8851 26.0349 25.9766
4292 1 18.3349 23.685 26.5552
4221 1 18.3098 25.8529 28.181
3328 1 16.8247 23.2711 28.5454
3231 1 23.0612 28.1021 26.8876
3752 1 19.3248 23.4788 30.3479
7572 1 20.2827 24.013 28.3088
928 1 22.3365 24.316 27.1348
6451 1 21.2433 26.347 26.678
1084 1 21.8926 25.6508 31.1579
3873 1 20.5379 26.283 29.1559
6125 1 22.9999 26.3055 29.0286
3676 1 24.9064 24.7637 29.1394
7177 1 26.2663 24.9146 27.1345
2444 1 24.2838 26.0059 27.194
125 1 25.7244 27.6558 27.9213
4220 1 32.1574 27.1954 30.0018
7883 1 28.1328 26.5212 27.4162
6859 1 27.5892 26.021 29.9309
7231 1 30.6687 24.0011 31.1601
1966 1 30.1017 26.0121 28.9334
7590 1 31.9772 27.0803 27.633
4761 1 33.3855 25.1263 27.1148
5393 1 32.0675 24.4954 29.5477
3321 1 35.4004 25.8375 28.1162
5638 1 34.4287 26.6625 30.1373
5001 1 34.2186 27.6119 26.8881
7969 1 35.5794 28.3589 31.5575
7795 1 0.0724693 27.4455 26.9175
6840 1 2.49311 29.3714 26.8833
2371 1 0.333081 30.3891 28.7539
7072 1 1.70841 27.9951 28.6469
63 1 -0.0972956 32.0008 26.5441
7870 1 0.793305 28.7644 30.6252
1396 1 2.46196 30.7012 29.7732
4990 1 4.4647 31.0033 27.5243
7722 1 6.44814 29.6289 26.5036
1405 1 3.82212 28.9066 28.9354
7956 1 5.80407 30.2628 29.5908
6599 1 7.90638 30.0246 28.1867
6436 1 7.66176 28.4191 30.084
1886 1 11.7618 26.9366 30.0533
1719 1 10.2398 28.497 29.2309
3113 1 10.0768 29.7843 27.1558
4846 1 11.6253 29.6161 31.2889
1318 1 14.3508 29.4838 27.0852
1398 1 15.5075 27.2927 27.4279
1070 1 11.237 27.4859 27.239
4365 1 12.5981 29.4476 28.8482
1900 1 15.0574 28.6288 29.4366
5087 1 14.1862 30.3215 31.0779
999 1 16.892 30.2382 30.3127
6989 1 14.026 31.5025 28.689
1560 1 11.5637 31.6412 27.4666
2749 1 11.5107 32.1649 30.0385
4124 1 16.1708 32.371 30.1829
203 1 19.2886 27.8536 27.186
994 1 17.2122 27.8303 28.8249
4197 1 18.2442 28.796 30.7612
3956 1 16.8643 29.9003 27.6255
2283 1 19.3202 29.9876 27.9536
515 1 19.6114 32.2153 26.5562
4226 1 17.991 31.6677 28.3226
2774 1 23.431 31.4958 27.1371
210 1 21.6014 30.1849 27.066
7576 1 21.2518 27.9897 28.0999
4284 1 20.7301 31.8095 28.9753
3793 1 22.6433 30.5464 29.3656
1166 1 20.9828 29.3414 30.2887
1018 1 22.8251 28.2372 31.7457
1493 1 27.048 31.7922 28.9677
5074 1 25.3569 30.3173 27.8171
6438 1 23.8651 28.7256 29.5425
7273 1 26.3673 31.6066 31.9233
7016 1 24.9108 32.7788 28.9529
2432 1 27.0419 32.7291 26.8124
852 1 29.9255 28.223 27.031
5657 1 29.7915 30.8621 27.7898
458 1 29.1318 28.2907 29.1598
847 1 31.6742 29.8198 27.3757
5749 1 31.9848 31.9265 29.1285
4688 1 26.5965 29.123 29.8157
4911 1 28.7255 30.4708 30.2508
2356 1 31.0576 29.8521 29.9622
2535 1 35.9286 29.8288 26.6942
7799 1 33.4802 29.4868 28.7515
5179 1 35.6872 30.5017 30.7058
7260 1 33.6239 31.3246 27.3468
3880 1 33.7501 33.6366 29.0394
778 1 0.20391 35.6874 27.1118
7472 1 0.0880583 34.1023 28.7721
4618 1 2.14163 31.825 27.6693
4375 1 1.79603 34.6644 31.1307
2321 1 1.18982 -0.255635 29.3952
208 1 0.755901 32.3126 30.5509
4035 1 7.02479 32.3247 28.6047
1081 1 4.62347 33.3085 27.3618
6595 1 5.61111 0.379186 29.2955
3234 1 7.82944 34.115 30.4508
608 1 5.35644 34.6261 30.0479
4600 1 8.52026 34.7273 32.5757
5635 1 9.87376 30.9466 29.3311
6152 1 9.27604 34.0583 28.6128
833 1 8.95595 32.0125 27.2858
2459 1 9.08587 36.0463 27.6336
3550 1 7.68647 31.367 30.6026
4378 1 10.5172 33.8282 26.5768
5004 1 10.5163 34.3347 30.781
6540 1 12.0015 35.6136 26.8329
4605 1 12.7292 35.0734 30.7442
4138 1 14.0002 34.169 27.6971
1253 1 15.1179 34.3942 30.4047
7152 1 11.9673 33.8311 28.5595
6778 1 16.0727 35.6427 26.5196
5402 1 18.3376 -0.399892 27.8115
39 1 15.7414 31.958 27.3292
2851 1 16.5531 35.0084 31.9582
4520 1 16.9811 34.0069 28.4722
4219 1 17.6619 33.6643 26.2578
3816 1 19.4274 34.0839 27.9805
522 1 21.5695 33.157 26.9385
6366 1 20.7102 35.7817 28.8823
527 1 22.61 33.338 29.0459
5480 1 22.7103 35.4634 27.8349
845 1 18.4214 33.181 30.4804
2198 1 24.6119 35.4931 29.1812
1878 1 26.7412 34.2841 28.8631
6136 1 29.363 35.3017 28.639
7549 1 24.8167 34.5887 27.0082
4675 1 28.0288 0.288734 29.625
2852 1 29.6228 33.2161 27.0552
7877 1 30.6436 1.06849 29.7633
848 1 29.2376 32.9287 29.4323
7520 1 30.7231 35.6998 27.1339
1423 1 31.1606 34.1617 29.7096
3654 1 31.0639 35.7516 31.6993
2350 1 32.1395 -0.422539 29.3372
2121 1 35.3709 31.7954 28.9886
7985 1 32.2263 33.8753 27.2858
4831 1 35.0864 33.9358 27.3206
5158 1 35.2034 33.1919 30.8346
7248 1 33.1961 34.3026 31.2942
7069 1 1.37862 2.16046 30.4687
3841 1 1.82601 0.505749 31.7895
5981 1 1.5558 3.23013 32.521
4371 1 35.7788 1.44632 31.0229
3020 1 1.41783 2.69354 35.3701
2616 1 3.48733 3.49135 34.1006
1033 1 4.95157 -0.195329 33.6255
7959 1 6.2064 1.55899 32.1365
4206 1 7.65029 -0.128313 33.5925
7550 1 5.40873 1.96891 34.7529
636 1 9.17716 1.63377 34.9728
5124 1 8.46355 32.7313 35.1427
4680 1 11.4936 1.45044 33.4825
2933 1 9.0116 1.29043 32.1388
3757 1 18.7504 4.98846 34.6824
996 1 13.8191 1.89807 32.2638
795 1 14.8336 0.583226 33.8383
4370 1 13.741 2.56622 34.5919
4435 1 14.6711 0.0304813 31.4866
5155 1 13.9842 3.50398 30.6172
5105 1 19.7135 0.0258103 33.3541
925 1 17.7472 2.31987 29.7351
1731 1 17.907 0.128722 31.6042
7307 1 4.6005 30.0623 17.972
4922 1 19.2825 2.17379 31.7131
4058 1 18.4505 1.89865 33.9997
7975 1 30.6791 30.6233 34.9174
5029 1 19.272 34.8352 32.2682
5967 1 22.1174 36.07 32.8515
7256 1 20.1526 3.45528 34.0848
3150 1 22.5028 3.30533 34.7092
4788 1 23.8953 0.492231 34.4281
6921 1 21.6795 1.44793 33.3155
3632 1 20.8016 4.11668 31.705
3827 1 23.944 0.84459 31.6396
2609 1 26.5543 2.17539 30.9976
863 1 26.0403 0.103015 33.1893
7318 1 26.643 3.51658 34.5462
6289 1 24.9447 2.3932 33.1508
7556 1 27.5761 34.9944 33.2562
5412 1 34.4131 32.7948 33.1591
5151 1 29.5958 -0.282179 34.0039
5989 1 30.1504 1.72804 32.9829
7329 1 27.6442 1.78647 33.215
1729 1 0.870116 8.6152 34.9539
4708 1 29.8715 3.22191 34.2781
6045 1 -0.585358 3.63179 31.9925
5071 1 32.1443 1.82588 31.7083
4604 1 -0.355116 1.80496 33.3412
5671 1 35.0607 3.80716 34.8926
1809 1 34.8871 0.248183 34.2626
6787 1 34.0471 2.29088 33.2845
2362 1 27.4514 -0.0405578 35.2537
5811 1 3.43595 6.78624 30.0789
6149 1 0.59993 4.75948 34.1997
2295 1 2.82184 5.3518 32.4466
7504 1 33.8199 11.9872 35.0464
428 1 3.21831 28.7092 35.4313
2448 1 0.642911 5.51653 31.1248
1162 1 2.6337 7.32788 34.0037
1652 1 0.125706 27.3545 35.4347
3798 1 5.39735 3.66999 32.29
4525 1 5.42088 6.01832 32.8017
3875 1 7.3833 2.70824 33.8121
5397 1 5.79661 4.45923 34.5305
4051 1 6.51982 7.13629 34.5051
535 1 2.93232 31.8309 35.0377
836 1 7.93559 5.50661 33.0126
2139 1 9.62482 3.40371 33.4682
3393 1 8.80528 7.56761 33.6866
1952 1 8.30021 4.41841 35.3187
1826 1 8.55247 9.79051 34.2852
7317 1 12.6145 5.46698 31.1226
4274 1 11.8116 4.22006 33.0428
6843 1 10.0738 5.74867 34.2269
1097 1 12.3698 6.68431 33.8092
6382 1 16.3581 1.99242 31.9934
2132 1 14.1505 4.44673 32.6147
2923 1 14.6258 6.58037 35.4981
6754 1 16.5097 3.98506 30.8577
6698 1 18.4193 4.52479 32.2963
2384 1 16.2436 3.88028 33.7651
7077 1 14.8896 6.8129 32.312
4537 1 17.4186 6.6423 31.5154
7519 1 8.47969 16.3098 34.5254
3901 1 22.6701 2.81348 31.7251
7076 1 5.19288 29.8223 34.6035
6389 1 22.807 5.28196 33.3214
5644 1 25.9893 34.4623 35.3255
1631 1 25.2635 6.603 32.6621
7642 1 25.5536 6.16326 30.2084
3573 1 26.8296 4.60983 31.3955
6911 1 24.5985 4.66282 34.6192
639 1 27.5036 6.74302 31.6199
120 1 26.4074 5.98658 34.5744
769 1 31.2538 4.31654 32.7777
4942 1 31.7752 8.52549 32.5142
6678 1 20.4168 7.93378 35.2021
3312 1 28.4075 5.44398 33.6039
1870 1 33.3876 4.58738 33.7283
1402 1 34.4064 28.976 35.0664
7398 1 30.5382 6.62958 33.1427
4866 1 35.2466 5.88739 33.3164
2272 1 32.866 5.90972 32.0351
1006 1 33.0307 7.05041 34.2054
6054 1 35.686 8.21303 34.1728
1246 1 0.592875 7.29779 32.761
5037 1 2.1929 9.79808 32.9442
6371 1 35.9171 9.22591 31.5732
2429 1 13.838 35.8209 35.3591
679 1 2.33527 12.1522 33.015
2692 1 30.5657 23.6293 35.3942
7667 1 4.64972 11.2183 33.1341
6860 1 4.27751 8.83884 34.461
7495 1 6.52365 9.0051 32.7849
844 1 4.34225 12.5463 34.8576
2280 1 6.19856 12.8267 31.1944
780 1 7.51217 11.2236 32.6618
6853 1 6.19212 10.29 34.8596
4538 1 8.59629 7.31196 31.4327
589 1 9.26996 9.55032 32.2039
6194 1 10.9996 10.1095 34.4943
4674 1 11.5261 9.30758 30.5814
4476 1 8.66544 11.9153 35.4859
6715 1 10.8718 8.28713 33.1426
1395 1 13.1644 11.2822 34.7321
3083 1 14.0191 8.70477 33.256
457 1 15.4099 10.6429 33.6426
1491 1 16.1775 7.87083 29.9118
1003 1 16.2088 8.4488 34.8233
7964 1 19.4623 9.30132 33.6448
1563 1 16.4688 6.30085 33.9616
5419 1 17.2227 8.75229 32.8442
940 1 18.9506 6.8672 33.3814
3422 1 19.1062 8.14752 31.4148
3175 1 21.8087 11.1015 33.7869
3499 1 20.5865 10.3511 31.3961
372 1 21.7335 7.82185 33.1049
6218 1 23.2398 6.87405 31.0809
6613 1 23.1718 9.36924 34.5667
953 1 24.4155 12.9702 34.4802
1509 1 23.9268 9.1121 32.0279
6766 1 27.2333 10.3232 33.6675
6935 1 26.152 8.76403 32.6979
5559 1 25.8686 8.29455 34.9509
7233 1 24.8244 10.8983 33.4409
4143 1 31.9118 2.26113 34.9463
2867 1 29.6449 7.88405 31.4811
5949 1 28.1428 7.77885 34.012
6590 1 28.8636 12.3493 32.6599
7650 1 33.7635 9.39921 33.6246
4366 1 29.5553 9.82214 33.7129
2369 1 31.1908 8.32753 34.8324
5243 1 36.0402 35.2065 35.4987
791 1 31.0019 11.0977 32.2136
2940 1 34.7088 11.5057 32.8283
7668 1 34.1909 7.77833 32.0785
6047 1 31.6035 10.5758 34.4418
545 1 18.5133 35.3968 35.0965
1413 1 2.58877 18.9505 35.0631
3415 1 0.2232 12.7843 33.7438
4438 1 2.22187 14.8156 33.2616
3169 1 4.46348 14.3009 33.4281
3089 1 3.58208 13.2754 31.5144
1485 1 -0.438829 15.0487 33.4771
4368 1 8.20342 20.9742 35.2758
7804 1 1.22294 13.6709 31.5165
3257 1 6.80011 12.5052 34.5653
1428 1 19.4195 22.7201 35.3038
4036 1 6.90219 14.5068 32.8943
7980 1 8.35075 12.9787 31.175
3475 1 6.37582 17.1909 33.7302
3669 1 10.9906 12.8533 31.2235
7403 1 9.78072 12.1034 33.3502
7229 1 12.5027 14.7882 30.5629
3809 1 9.58098 14.616 32.5434
943 1 18.9217 25.9932 34.862
5268 1 12.2444 13.9271 32.8926
3164 1 18.0138 28.3065 35.5438
6150 1 14.1632 12.7248 32.2114
7658 1 12.0843 11.2067 32.743
4859 1 14.064 13.6092 34.481
7315 1 15.0019 14.6516 30.7851
5728 1 16.0982 12.7028 34.7526
2244 1 14.7413 15.6007 33.4075
7793 1 17.57 11.0762 32.6327
7810 1 18.4023 13.3821 33.1557
850 1 18.805 12.351 31.1049
118 1 20.6983 12.4678 32.0295
2602 1 19.2712 15.0033 31.3061
4619 1 0.105279 10.4096 33.5638
6695 1 23.9886 14.3774 31.7618
3329 1 21.1535 14.0533 30.4306
6219 1 20.2725 13.1108 34.8072
7081 1 19.4603 11.398 34.0585
2829 1 22.3802 13.1695 33.3517
2157 1 23.6011 15.2752 34.3023
995 1 23.0588 11.2862 31.5587
4611 1 25.2193 12.3516 31.0508
5073 1 26.3933 12.6463 33.1298
6055 1 26.0406 15.4073 33.8874
5488 1 23.235 30.8662 34.8998
2063 1 30.8252 12.9167 34.1614
7732 1 31.8263 15.6616 33.8265
1790 1 7.38652 30.3437 35.3265
4591 1 28.1753 12.5555 34.8843
4931 1 30.8397 14.1764 31.9647
2543 1 28.0719 14.5512 32.9611
7006 1 29.2962 16.2463 32.66
3259 1 28.1846 16.3317 34.844
5988 1 32.6561 12.5588 32.8679
4355 1 32.8559 14.5354 30.9527
2224 1 35.1294 13.7052 32.0404
3732 1 33.7346 14.1227 34.0934
1340 1 33.102 35.0234 33.6161
2149 1 4.0818 16.8211 35.0394
391 1 2.91977 19.1784 32.3534
3823 1 3.53958 16.5066 32.6662
4050 1 0.890444 16.5147 31.9415
676 1 0.375045 17.5 35.1056
2308 1 5.84126 17.5839 31.6557
2670 1 8.94857 17.1385 32.6874
70 1 3.87404 17.9244 30.4718
2682 1 4.55837 18.361 33.4446
5886 1 7.64136 16.0543 31.1283
691 1 19.4742 29.9323 35.3566
1248 1 7.09098 19.7365 33.0745
6999 1 11.0148 15.9813 33.8521
200 1 9.23629 19.3912 33.397
3158 1 11.0834 18.3984 31.9801
933 1 8.7666 18.7873 31.0636
2047 1 23.7812 6.97627 34.3019
2674 1 33.486 31.1871 34.7877
7404 1 14.4043 19.8694 34.8319
1556 1 12.89 16.9092 35.0661
4677 1 12.8847 16.85 32.6769
2110 1 13.0294 19.7772 31.351
380 1 12.4151 19.1712 33.815
1399 1 15.2338 17.7735 34.1378
2614 1 17.993 17.3703 30.218
4132 1 17.1142 16.0812 31.9936
4283 1 17.311 15.3504 34.1889
4126 1 17.5671 18.1072 33.5656
5881 1 19.3373 16.0673 34.3657
1727 1 19.3482 17.0737 32.2752
6117 1 19.8594 18.9325 34.2929
5266 1 20.4152 16.6289 29.9296
1881 1 20.94 14.9043 33.0266
2287 1 24.0025 17.8493 33.9951
6916 1 23.4937 18.6787 31.666
427 1 20.9563 19.095 32.2754
4593 1 26.1179 19.2248 31.8488
3479 1 31.3885 5.62639 35.1973
3874 1 24.7471 16.6465 32.1838
4029 1 22.1104 16.3292 32.0842
4542 1 26.068 18.0755 34.0212
130 1 27.2038 20.9543 33.3965
6033 1 5.98319 19.6631 35.3047
7474 1 35.3976 34.9546 33.301
2029 1 17.2637 23.4402 34.4676
6032 1 30.6526 18.8129 31.3902
5337 1 28.4304 19.4043 31.1675
7405 1 27.0845 16.7018 32.0377
1995 1 28.4981 18.3717 33.4925
3961 1 32.2463 16.748 31.2859
5805 1 34.9262 16.3228 34.8573
5262 1 34.0565 16.3623 32.7603
2454 1 35.5356 15.6197 30.7673
4154 1 32.9998 20.0732 34.6471
6837 1 32.7141 18.6307 32.755
7471 1 34.9187 17.8175 31.2483
6689 1 0.237137 18.6719 32.5528
7013 1 30.6573 17.6316 33.445
6121 1 33.4833 33.5011 35.1019
5474 1 0.983891 20.1922 33.9172
3185 1 -0.0125353 19.4553 29.4812
4995 1 35.0012 18.5167 33.6341
1265 1 0.467234 20.8308 31.5195
6456 1 35.8385 22.6502 31.5327
6761 1 34.8685 21.1322 33.608
7869 1 6.00419 14.8085 35.2267
5668 1 5.03688 20.3107 31.5925
1965 1 2.78271 21.3767 32.2228
1310 1 3.98018 22.21 30.3248
4287 1 4.27177 23.3045 32.8559
7323 1 6.10055 22.7285 31.2756
2994 1 6.24031 22.0481 33.5198
7672 1 7.2144 23.5831 34.7716
5080 1 7.23692 20.9394 31.1992
6282 1 9.80858 14.3619 35.0794
7817 1 10.2117 20.4421 31.5577
1016 1 11.2475 21.1924 33.2529
7736 1 8.77279 21.8614 32.9919
2364 1 10.2371 23.6412 32.3287
6591 1 16.0437 21.9083 32.912
5734 1 13.376 22.0211 33.1382
6240 1 11.8912 22.1597 31.2965
4385 1 12.1251 23.712 34.0427
5083 1 23.9535 26.5764 35.2192
310 1 14.7016 22.3425 34.8935
1844 1 15.4164 19.5398 32.8999
5962 1 17.7095 20.6658 34.2959
1323 1 20.3255 21.1354 33.4021
5799 1 18.662 22.5267 32.899
7671 1 18.1121 20.2061 32.2218
2038 1 22.5445 21.5517 32.3411
3248 1 22.212 19.6538 33.9645
7656 1 31.7978 0.353476 33.6206
3076 1 21.2172 23.3601 31.893
875 1 25.5562 22.7123 32.3724
1244 1 22.1493 22.4229 34.5116
4782 1 17.209 10.556 35.0815
1249 1 24.8152 20.5745 33.2822
3155 1 4.28015 20.686 34.1189
3630 1 26.0516 21.2876 30.4142
1388 1 24.5177 22.3551 34.547
7092 1 27.7636 22.6259 31.4506
777 1 27.3577 22.9201 34.6015
7161 1 30.7772 19.8982 34.5264
4676 1 29.378 20.9342 32.6024
2788 1 20.8209 5.87418 34.3858
5318 1 29.1032 21.4397 35.2801
7710 1 30.9247 22.3551 33.4746
4436 1 2.45644 10.8261 34.9292
3810 1 32.1129 20.8708 32.2724
1495 1 32.9372 22.9607 32.1807
6852 1 32.7975 23.0608 34.4935
2115 1 34.5293 20.1168 31.6981
3233 1 31.2016 24.8884 33.7955
4596 1 33.3758 25.3501 34.1688
5280 1 33.927 0.328059 31.9334
6772 1 -0.112977 24.6591 34.7997
3807 1 0.895988 22.6439 33.3555
4528 1 0.971594 26.2244 32.6032
3712 1 2.54672 26.7047 30.1576
6447 1 2.11134 27.8199 33.551
4216 1 35.706 25.1567 31.5441
216 1 6.62936 26.0658 30.9652
2831 1 2.0082 24.5012 33.9121
4030 1 4.37617 24.7044 30.8469
4514 1 6.77159 24.489 32.694
1329 1 3.49955 26.2232 32.3999
5334 1 4.93441 26.0096 34.0985
2679 1 10.2178 22.4984 34.9618
7319 1 8.54645 24.6768 31.05
7420 1 8.70688 26.8338 31.76
7919 1 7.34093 26.291 34.2723
2054 1 10.2046 26.757 34.1623
4912 1 8.94244 24.7299 33.7327
5321 1 4.36418 6.17423 35.2716
5157 1 12.9367 24.2571 31.6656
7798 1 13.6294 28.0264 31.3406
849 1 11.8516 25.7338 32.9007
6115 1 14.4562 26.1512 32.3343
6534 1 21.1967 35.8913 35.1728
6441 1 13.8259 25.3179 34.7329
789 1 15.5951 27.7739 34.0719
1151 1 17.005 24.4508 31.7277
4294 1 14.8725 23.9814 33.2036
3339 1 19.482 25.1038 32.3452
616 1 31.0835 34.7017 35.1442
6760 1 17.2213 26.3689 33.073
3484 1 20.4593 27.4768 31.7724
1753 1 22.3517 26.2203 33.6066
3748 1 21.6872 17.3158 34.1836
7239 1 24.277 26.1781 32.3444
5230 1 20.6604 24.44 34.2109
2830 1 25.3561 26.7163 30.2793
6365 1 26.3798 25.4286 31.9868
1192 1 23.3577 24.1732 32.4786
7894 1 27.5605 25.3393 34.484
4530 1 25.5384 24.4219 33.9885
758 1 27.6503 27.9807 32.2028
2706 1 29.1193 23.5095 33.5092
5565 1 28.8466 25.5025 32.6453
7735 1 12.3497 30.1302 35.3168
6439 1 29.728 26.3622 35.0201
7593 1 32.8121 27.4014 33.569
42 1 33.1363 25.3878 31.8629
3631 1 29.5118 14.3305 35.5138
5632 1 34.9782 30.4276 33.2198
1887 1 35.1421 23.7355 33.4759
4518 1 32.8998 17.7836 35.2217
3349 1 35.4349 26.8304 33.3901
6294 1 28.8583 34.873 31.0993
3819 1 0.466312 31.5964 34.3727
6157 1 2.58545 30.2332 33.265
7833 1 0.818243 30.6527 32.1399
3898 1 3.01767 32.3229 31.9849
7421 1 2.89327 28.8409 31.4872
1280 1 4.41995 28.2057 33.1012
2627 1 6.48359 27.4563 32.65
5798 1 4.57312 30.4807 31.7007
761 1 4.88889 27.8459 30.9152
3660 1 6.46994 29.6958 32.6339
3347 1 8.9007 31.2054 33.174
949 1 10.7123 27.6898 32.1281
2699 1 10.6772 29.3799 33.4438
52 1 8.28257 28.3798 33.491
605 1 9.15642 29.5437 31.5474
4207 1 16.3205 1.90785 35.1343
774 1 16.0058 27.81 31.5912
1644 1 12.7304 31.0986 33.1277
2624 1 12.9504 28.2027 33.6392
5237 1 14.6419 29.9446 33.5278
2037 1 16.5184 31.9492 34.5167
3497 1 18.6721 26.2711 30.5476
6830 1 15.1533 32.3455 32.959
2525 1 16.9727 29.7781 33.202
4936 1 18.8399 31.8913 34.7749
4269 1 1.73149 13.0041 35.3233
7444 1 19.227 30.8931 30.4642
7240 1 21.4745 31.6374 31.6556
6062 1 20.1782 27.5422 34.1862
5090 1 18.4319 28.2308 33.1704
5714 1 21.4953 29.131 33.3522
361 1 23.5897 30.8173 32.6468
5011 1 19.4599 30.0679 32.7402
7230 1 26.0327 26.8008 33.9275
6211 1 27.2478 32.8728 34.0159
3260 1 24.9328 31.0232 30.3308
4215 1 24.2399 28.4653 33.7841
4750 1 25.4339 28.4952 31.6248
5789 1 25.7985 29.9669 34.4895
1093 1 29.416 32.5845 34.6762
3729 1 30.0574 28.2605 33.7182
2351 1 27.8711 28.2074 34.8302
6048 1 28.2654 30.057 33.3921
4400 1 29.8368 28.2951 31.309
7954 1 31.877 32.3333 33.6322
5557 1 2.57778 0.884027 33.8837
860 1 33.0363 28.6898 31.433
6516 1 30.347 30.2696 32.2958
282 1 32.3835 29.748 33.2298
4289 1 3.18454 22.5073 34.8392
1555 1 31.0966 26.2724 31.945
1895 1 0.298548 29.0893 33.9298
7244 1 0.612348 -0.453947 33.4563
276 1 -0.482584 35.6775 31.4338
1811 1 0.543333 33.517 32.6921
6604 1 29.7598 34.1551 33.0886
4559 1 2.27299 34.5985 33.4812
2859 1 5.97066 34.7918 32.5537
6442 1 4.40077 34.2165 34.5322
1655 1 3.00556 33.1001 29.6279
6041 1 5.69925 32.3487 31.1757
31 1 4.92168 31.9572 33.5355
4278 1 6.85336 32.4422 33.3806
941 1 28.404 32.6708 32.1979
3032 1 10.6495 7.61872 35.2429
3331 1 9.67872 32.2706 31.6892
5434 1 6.85737 34.5336 34.7574
5501 1 10.1923 33.6209 33.62
1972 1 10.251 36.0109 33.8357
3490 1 12.2231 33.0524 32.1383
607 1 10.7258 32.1183 35.3103
7720 1 12.706 -0.512417 33.2839
1636 1 14.2692 34.3684 32.6557
6839 1 24.7261 32.5178 33.6601
1957 1 13.9237 32.6473 30.5414
7567 1 12.9423 33.2904 34.5589
5730 1 17.4 31.6756 32.1421
2379 1 15.6144 34.4399 34.539
3417 1 19.9869 33.8952 34.5399
6758 1 17.7185 33.6968 33.4245
195 1 16.8053 -0.0365648 33.8145
6620 1 20.7875 33.6374 30.7806
4190 1 21.1677 31.6471 34.2161
6476 1 22.5943 35.2356 30.4901
6521 1 19.7872 32.4781 32.7125
7314 1 22.077 33.5685 33.0847
1401 1 26.6651 36.1392 31.0792
7262 1 24.6317 35.0627 32.661
3950 1 23.3956 34.5579 34.5544
7397 1 24.0484 33.1049 31.2604
5893 1 26.4844 33.7807 31.314
2955 1 23.2054 24.5367 34.809
3671 1 28.3113 34.6686 35.3357
5104 1 30.634 32.4678 31.1946
3576 1 13.0237 4.89694 35.2155
2297 1 13.2764 8.53797 35.4304
2911 1 0.858802 15.2903 35.4762
4848 1 3.51908 14.7683 35.4935
6225 1 9.42683 29.8121 35.448
111 1 12.3502 21.3347 35.417
5390 1 16.1965 29.77 35.5264
2219 1 -0.0183337 1.01205 35.3636
5520 1 5.98912 27.8868 35.5248
5065 1 28.8949 2.21489 17.5396
1822 1 1.19714 -0.136759 36.8849
6457 1 1.84648 1.3576 38.7278
6372 1 4.00244 0.0150684 38.1067
3311 1 -0.0454018 2.2165 37.7993
3166 1 3.08417 1.47422 36.629
4208 1 35.559 35.8384 52.0869
7416 1 5.77598 36.1256 35.9001
4927 1 3.77188 2.53748 38.8711
932 1 5.67539 1.45701 37.2362
2847 1 5.30133 0.957999 39.8567
3253 1 33.7842 -0.387558 50.074
3826 1 28.986 4.54318 35.8906
6130 1 7.53251 1.42598 38.6592
2033 1 10.5787 3.7242 38.8153
4363 1 9.68927 1.47974 39.8318
6762 1 10.1315 0.737736 37.3805
6510 1 11.4011 -0.39587 39.917
7910 1 8.16821 3.41823 40.168
1793 1 8.96171 2.53016 37.2061
4227 1 11.9262 1.78058 38.2298
5646 1 15.1771 2.48108 40.7533
6835 1 14.2777 1.63045 38.8935
3651 1 15.0575 3.94491 36.337
4298 1 16.3232 1.93045 37.511
3120 1 14.1992 1.64705 36.6379
4153 1 12.8367 -0.46368 37.8633
3739 1 20.162 3.7088 36.6468
6065 1 19.0385 1.94516 38.2518
3194 1 18.0045 0.460421 36.5222
1595 1 17.7104 3.77001 36.5989
5119 1 19.1097 0.459842 40.2004
7903 1 30.9835 0.269416 36.0298
4212 1 15.7623 -0.538319 36.2138
4595 1 31.4437 32.5777 36.1896
2271 1 21.912 2.19406 39.0713
609 1 20.8932 0.260112 38.1694
2684 1 22.6333 4.24734 39.4877
1814 1 24.0671 1.14172 38.0681
5887 1 22.3617 1.30504 36.1885
760 1 23.0094 35.8087 36.7294
1394 1 26.1908 0.599697 37.5114
2237 1 25.0504 -0.285679 36.0327
6116 1 11.9713 25.7944 35.5794
5725 1 24.7837 35.4765 38.3505
1360 1 26.8508 2.89578 37.2774
7575 1 32.9804 34.2256 50.8285
275 1 28.6934 0.163013 37.1436
2630 1 28.7649 2.58301 38.1828
194 1 32.2388 1.87427 37.6739
3563 1 27.7542 30.7061 35.5565
7876 1 28.0761 0.696681 39.4681
1164 1 35.644 -0.0242368 37.2204
4670 1 33.9996 1.83398 35.8869
7976 1 34.3159 1.39937 38.3184
2907 1 32.7048 -0.528528 38.6445
7718 1 1.72436 3.65783 38.2888
441 1 35.8833 6.22625 37.7875
4453 1 2.34897 5.91964 37.8948
4543 1 0.982721 5.27315 40.1336
6137 1 6.18819 3.09201 39.0098
3870 1 4.88692 5.0081 38.6582
1789 1 6.64356 3.44512 36.7567
5891 1 4.23457 3.46441 36.2982
7966 1 7.28636 7.3691 38.7452
2031 1 6.62266 5.67011 36.5296
7191 1 8.18403 4.94229 38.1434
6357 1 10.5951 4.99514 36.8844
4277 1 16.8006 16.5909 36.1457
843 1 11.7343 5.75934 39.2604
750 1 9.70099 7.25174 38.3395
6395 1 8.52949 6.67135 36.0754
5636 1 8.9647 5.95038 40.1323
2632 1 12.8793 3.80274 39.5393
671 1 12.4664 6.50052 36.457
1180 1 15.3207 3.75702 38.8029
360 1 14.0106 5.61459 40.2964
711 1 17.4194 4.81388 38.9918
1648 1 26.2092 16.0336 36.0814
5653 1 15.997 6.85361 39.6577
2996 1 12.9024 3.69576 36.9891
5986 1 14.1208 5.66714 37.8387
7808 1 18.182 7.01597 38.2761
286 1 16.2559 5.83144 36.7034
7802 1 19.4249 6.27758 39.9491
6781 1 30.1015 20.2293 37.0848
5341 1 19.5931 4.07535 38.8573
4450 1 22.2849 3.54542 37.1389
7332 1 21.8981 6.38869 40.2697
7026 1 24.1547 7.76823 40.208
3645 1 21.3504 5.72242 38.1078
6128 1 23.798 5.85168 38.3322
2669 1 24.6751 3.32077 38.9836
7411 1 25.7077 5.49643 39.4204
5732 1 -0.0441386 4.34049 36.5333
3011 1 27.47 4.97767 37.7177
4441 1 26.0856 9.31497 40.2679
1086 1 29.7969 4.70408 38.5909
7978 1 19.6279 5.96868 36.6928
3716 1 25.6022 6.51452 36.7532
3240 1 30.857 3.30521 36.8184
7119 1 32.5555 3.64516 39.0294
1675 1 33.0659 6.74963 36.5002
2435 1 29.8813 6.68893 36.3451
874 1 31.994 5.33316 37.7845
2844 1 36.0374 3.77532 39.8265
6669 1 34.1371 5.76609 39.0771
1403 1 33.0947 4.45787 36.0724
6473 1 34.5533 7.88259 38.4703
4430 1 34.6794 3.65497 37.5996
6636 1 35.6901 8.16047 36.7134
6920 1 3.16106 8.8139 38.6567
3566 1 3.15793 7.7863 36.3694
2770 1 0.840795 7.7767 38.2487
4394 1 1.86807 10.1296 36.9751
6229 1 33.2893 31.9717 50.4103
5576 1 1.57699 9.68457 39.7536
1975 1 4.30147 9.97825 36.9406
2605 1 5.10289 7.25501 37.6582
5907 1 6.77732 8.65433 36.6107
3882 1 6.35042 10.1375 38.85
2615 1 8.09425 10.9202 37.5897
4930 1 3.92959 11.245 38.9506
5440 1 6.24166 32.5093 36.139
1170 1 8.78041 9.34044 39.22
2380 1 9.1725 9.10881 36.6494
1803 1 10.3615 11.2195 39.1453
2764 1 10.951 9.06556 38.2625
6834 1 10.6535 11.1885 36.8292
7160 1 13.1858 8.27488 41.476
2363 1 12.862 8.20451 38.6595
6594 1 12.5573 10.3578 37.495
350 1 15.0439 9.46796 38.8447
6677 1 14.9901 10.1393 36.2367
5729 1 28.8944 1.86307 35.8334
6230 1 18.2778 7.87532 35.8756
3428 1 20.5068 8.0856 37.6022
1633 1 17.0874 9.33223 37.3953
4681 1 18.294 10.7625 38.8622
2827 1 15.3326 7.68231 37.5317
7988 1 29.6703 17.7229 35.9487
4373 1 20.6913 11.1489 38.9763
4621 1 22.8806 8.02396 36.6845
3413 1 21.7168 8.66174 39.8569
151 1 22.8248 10.1027 38.0609
4237 1 20.9437 10.619 41.1623
6598 1 21.4052 10.7335 35.9627
2560 1 24.5554 8.5198 38.3033
3178 1 24.5303 9.64422 36.4359
3084 1 27.1865 9.91926 37.609
929 1 27.7751 7.28035 36.301
3650 1 26.8016 7.72608 38.3253
197 1 25.1323 10.6494 38.503
233 1 35.9766 0.388879 53.8397
6673 1 30.5477 9.40881 36.6448
1733 1 28.9026 8.4023 37.739
5175 1 29.4536 11.3937 38.4856
516 1 30.5228 9.66005 39.4213
4682 1 -0.339885 12.1651 36.2887
3309 1 -0.575392 10.178 38.0931
770 1 32.1899 11.6718 36.6446
4752 1 33.7573 10.5073 38.1261
3907 1 32.6534 9.60647 40.0482
7091 1 33.4856 32.2252 52.9933
4852 1 31.9781 8.45514 38.1583
1798 1 1.57476 34.3078 35.7273
2526 1 1.21082 11.8607 38.5329
6829 1 3.2543 12.2539 36.9491
7806 1 2.31342 14.5737 37.3912
7577 1 -0.0155774 13.9417 37.702
6126 1 0.498271 14.0039 39.8577
3562 1 34.8754 12.1658 39.7019
6318 1 35.5264 34.0398 49.6445
3637 1 5.86191 12.723 39.4906
6535 1 8.26912 11.9682 39.7572
4793 1 2.90909 13.124 39.3568
3674 1 24.9406 2.24576 35.7976
4997 1 4.9236 13.9496 37.3001
1756 1 5.89163 11.9479 37.058
2926 1 10.2408 17.1782 35.9571
5112 1 10.1475 13.7501 37.4631
4634 1 7.94565 14.4844 39.2429
2204 1 7.84557 13.5506 36.7652
4379 1 10.041 13.695 40.1414
950 1 25.2673 18.6259 35.9936
7797 1 14.5789 12.9906 36.7625
1820 1 24.9227 4.33026 36.6792
6298 1 12.155 12.7031 38.0296
7640 1 14.2568 11.8867 39.0176
465 1 13.7065 14.8393 37.9205
6431 1 14.7728 17.3185 38.4288
4349 1 16.6754 11.8317 40.0433
1488 1 19.2575 10.3659 36.7176
3330 1 18.4335 13.3918 38.1508
1234 1 16.494 11.6864 37.4102
3717 1 20.2569 12.4522 37.2574
5966 1 19.8777 13.1651 39.9906
3182 1 21.5397 14.4668 37.9352
4279 1 21.8802 15.0112 35.6094
284 1 31.9362 21.2987 36.1025
2597 1 22.1722 12.3465 40.5748
1019 1 24.5229 12.465 37.106
5965 1 22.5495 12.3969 38.4702
2998 1 24.0896 14.9251 36.909
3171 1 27.648 12.2482 37.4745
3883 1 27.7899 14.6166 37.5085
5347 1 23.6554 14.4244 39.799
2080 1 25.9196 13.6801 38.6888
129 1 28.3026 13.3775 39.7718
1638 1 20.0695 1.41023 35.8616
3808 1 30.1496 13.3394 37.9076
1987 1 30.5637 15.5408 37.1783
6129 1 32.1473 16.2461 40.0323
7159 1 34.1902 13.04 37.4501
6123 1 34.5711 16.8219 38.6686
1717 1 27.875 19.3381 35.6695
5738 1 32.2449 14.6788 38.5128
3480 1 33.556 15.5066 36.4363
7638 1 34.7705 14.7812 39.0698
4357 1 2.13355 17.1135 36.5248
5329 1 2.79347 16.5247 40.4728
4857 1 32.2919 25.5057 36.1949
1805 1 0.894312 16.2286 39.1114
6364 1 -0.503683 16.4067 37.0985
2306 1 0.402864 18.4 38.5442
5786 1 2.86674 18.2861 38.6824
5564 1 -0.248415 19.225 36.2581
3404 1 4.0753 16.1922 37.621
7327 1 4.24991 18.7394 36.7084
7008 1 6.18915 16.3215 38.7845
4799 1 5.16904 18.1615 39.9213
3560 1 6.36393 17.1542 35.9845
537 1 3.49461 18.7914 41.0414
846 1 9.96623 20.9226 37.4756
4213 1 10.6043 15.9359 38.9247
2781 1 8.56878 16.0888 37.3476
4792 1 6.90848 18.0567 37.9192
1155 1 9.53076 18.4917 38.2345
1629 1 8.72562 16.6793 40.1377
3486 1 7.58615 18.8158 40.2887
2837 1 12.2758 16.8496 37.3917
5326 1 16.7289 18.5514 37.9579
4763 1 11.3634 20.4483 39.2231
700 1 11.6176 17.9732 39.7611
4275 1 12.4721 19.461 37.1143
2368 1 14.5621 18.0812 36.3603
1813 1 16.8117 14.228 36.3441
2000 1 18.8246 18.0818 36.5871
2135 1 17.0885 16.151 38.4204
5579 1 19.0743 15.2111 36.4295
453 1 2.04904 26.1842 35.6367
1075 1 17.6566 20.7592 38.1657
6755 1 7.68963 0.395427 36.3514
1072 1 19.1487 15.3736 38.7495
2628 1 20.7459 16.8174 37.3138
6546 1 21.3863 18.804 36.5292
3884 1 21.6824 20.471 41.2029
1880 1 23.1245 19.1011 37.8539
6030 1 18.7344 18.0706 38.8628
5726 1 27.7259 17.241 37.6813
145 1 22.8052 16.4719 38.6402
6714 1 24.8508 16.7859 37.9524
5583 1 25.3934 18.4155 39.8129
6533 1 23.2869 17.0928 36.2268
2527 1 29.082 15.6456 39.1609
6204 1 27.8639 18.0521 40.2465
3173 1 30.0384 17.8829 38.5434
4387 1 32.0442 17.149 37.9157
5238 1 32.3104 18.7179 40.071
2995 1 29.8311 19.5254 40.5269
5715 1 34.588 18.4629 37.2354
3035 1 35.3203 18.1051 40.533
7085 1 33.1812 17.3844 42.183
7477 1 34.3309 20.0251 42.3577
3825 1 2.53045 23.1084 38.7276
464 1 2.00629 20.3932 39.6199
1634 1 1.44432 20.7381 36.8445
3090 1 0.494315 22.5705 40.484
3713 1 4.38437 24.3348 35.6625
3074 1 5.32374 19.8062 38.4191
3121 1 4.59033 24.0567 37.8245
3803 1 4.34822 20.8465 40.4211
3318 1 5.88209 22.2236 38.1501
1260 1 6.60522 20.8095 40.0755
2750 1 3.75073 21.4842 37.419
4117 1 12.0953 14.6276 36.1463
3332 1 5.42902 22.2482 35.9256
5235 1 12.4555 22.3173 37.9811
2753 1 7.34419 20.2754 37.2443
1431 1 7.76507 23.2319 39.3438
7949 1 8.0893 22.849 37.1624
3357 1 28.3939 24.021 36.458
7652 1 10.6886 23.1022 39.7052
1575 1 14.8122 21.433 37.5664
5913 1 13.6495 19.5483 39.5707
3723 1 15.7075 20.109 39.0831
7410 1 25.2577 31.4837 35.9439
6313 1 12.5574 23.0109 53.2758
375 1 16.4384 23.1291 38.4877
7164 1 16.8322 22.0524 36.083
2111 1 18.7818 20.3989 36.1391
6050 1 19.6115 22.4894 37.9513
4377 1 18.1774 23.0996 39.6613
303 1 20.3758 20.0821 38.1494
442 1 22.2426 21.5348 38.7921
4836 1 21.2616 23.7375 36.571
6141 1 19.9876 24.6305 38.6762
386 1 20.9466 21.1057 36.127
870 1 26.7998 20.3762 39.9074
1169 1 26.5941 22.746 39.5052
2608 1 26.2889 19.5924 37.816
2146 1 25.746 23.2109 36.1849
992 1 25.1945 21.5285 37.9746
400 1 24.7411 21.0259 40.3254
2518 1 32.343 19.4288 37.5703
2447 1 28.5646 19.4068 38.0355
6312 1 27.5308 21.9991 37.1352
5327 1 28.7908 21.7118 39.3532
771 1 31.0017 20.7606 39.1236
2150 1 30.2013 22.5961 37.7593
5753 1 31.5204 23.1702 39.7089
3402 1 33.196 21.6745 38.4477
6757 1 34.2982 19.8311 39.1073
6767 1 -0.432643 20.8521 38.1737
5669 1 34.0542 23.632 39.3046
2675 1 32.6793 20.8075 40.8584
4608 1 35.2007 23.6141 36.1621
1519 1 34.8042 21.8782 40.3159
2305 1 2.27341 23.6967 36.4131
1406 1 0.0624192 23.3449 38.1651
3824 1 1.54232 24.9361 39.7894
2388 1 0.153431 25.5622 37.4887
5261 1 1.66683 27.9115 37.0097
6233 1 0.907441 27.2636 39.1909
7089 1 22.3695 12.8276 36.0989
5877 1 6.48328 25.2279 36.5848
4367 1 6.38969 25.0712 39.1984
5356 1 8.33789 18.4128 35.6331
7158 1 4.83154 26.4317 37.5665
2056 1 4.13904 28.5557 37.7207
766 1 2.71236 25.9245 37.8674
5492 1 4.17036 24.9766 39.9324
7104 1 9.04215 25.4354 35.97
6549 1 7.69098 26.9794 37.8168
536 1 9.05841 24.6975 38.0606
3237 1 10.4013 26.8714 37.7603
2298 1 11.0917 28.0102 35.8378
5570 1 8.5303 26.959 39.8816
4517 1 13.9793 24.0558 38.7508
4777 1 11.8456 25.097 38.1581
5482 1 13.0477 26.9075 39.4684
61 1 13.8143 26.5157 37.0645
7235 1 10.5764 23.3214 36.9556
7563 1 12.4865 28.2313 37.5915
7600 1 30.7569 34.1795 52.2418
2449 1 16.232 26.95 36.0571
861 1 -0.31249 21.5906 35.5881
3013 1 15.9472 26.4057 38.2385
4695 1 17.6806 25.3132 39.6762
3243 1 18.5319 24.2935 36.673
1968 1 19.036 25.8659 41.6919
7760 1 18.1939 26.7293 37.6818
5000 1 20.228 28.0051 37.2633
1237 1 20.1629 26.8854 39.4669
4535 1 21.5585 26.2197 36.1214
4524 1 1.11609 6.66676 36.003
3799 1 22.1724 23.9295 38.7515
1490 1 23.8038 24.7563 37.1902
5167 1 26.9091 24.6824 38.094
1835 1 24.2979 23.5492 39.0952
7957 1 22.5302 26.5282 38.6086
3570 1 26.1078 24.9296 40.1903
2606 1 26.9147 27.5012 38.7363
7098 1 34.4147 20.9713 36.1933
3558 1 28.7226 24.0401 39.9384
5014 1 28.0635 26.4776 36.9636
526 1 28.9785 26.7883 39.036
6945 1 30.0723 25.0751 37.538
7568 1 30.832 27.459 37.804
4607 1 32.6657 23.4664 37.1043
7900 1 32.4172 25.4744 38.8634
2591 1 34.3251 29.8169 37.9451
4880 1 34.5074 25.4412 37.5281
4947 1 33.2691 27.7594 37.4556
6874 1 0.424301 29.8856 37.9289
5649 1 35.5695 31.9567 38.1774
3881 1 3.27971 32.6269 38.1086
1404 1 1.10714 32.0519 36.871
5571 1 35.8828 30.5053 36.3209
7566 1 29.1417 32.1636 52.4253
3912 1 14.8489 35.617 50.5428
7025 1 6.1334 29.1479 37.4462
5554 1 1.46999 30.0766 35.9255
84 1 4.3344 31.1924 36.4392
4273 1 3.0226 30.233 38.4799
7751 1 23.2094 22.2503 36.942
4516 1 7.88443 31.6681 40.6379
618 1 10.703 28.4613 39.4687
3149 1 11.1772 30.2647 38.1095
7004 1 8.51165 29.3448 37.5841
1654 1 9.52181 33.0902 37.6297
3735 1 7.49235 31.416 37.9319
7805 1 33.1835 9.22865 36.0653
2372 1 14.5176 31.8563 35.5685
2040 1 13.9859 30.5756 37.4584
2520 1 16.7365 19.0373 35.7714
3981 1 11.7744 32.0349 40.1463
3814 1 14.1976 28.6829 35.7069
7498 1 14.9635 28.4621 38.1731
4758 1 16.0019 30.2981 39.3474
3973 1 29.995 11.52 36.1967
1324 1 17.5535 30.9136 36.7902
2034 1 18.2749 30.9943 40.2041
4282 1 17.1581 28.7825 37.6497
1561 1 19.2539 30.3218 38.2844
460 1 16.7082 29.5662 42.2663
6929 1 20.0113 32.8079 36.7204
5660 1 17.963 28.0602 39.675
779 1 22 31.7181 39.0987
5721 1 21.6992 29.2446 38.8775
5639 1 21.6168 30.568 37.1235
3725 1 25.5197 31.8959 39.6203
5874 1 21.7322 28.5848 35.5928
2152 1 11.072 10.1842 52.5368
1415 1 23.5866 20.0547 35.6351
5436 1 25.6372 25.5341 35.994
2365 1 25.1417 29.0229 38.6664
1955 1 26.6064 30.815 37.8904
633 1 24.1831 28.8098 36.2547
4461 1 29.4119 3.22547 52.5589
2953 1 29.0665 28.8023 36.8902
3474 1 26.4283 28.4596 36.5643
6216 1 28.2205 32.3913 38.9
3251 1 32.2861 30.4785 36.7996
6991 1 30.7815 29.6289 38.2469
1119 1 28.381 29.5046 39.1887
5115 1 33.8046 32.0703 36.8794
4511 1 35.9629 28.1363 37.4825
7275 1 11.6114 35.0074 53.1676
5040 1 31.4624 32.1685 38.637
5093 1 13.2729 23.9271 36.56
942 1 0.688065 35.9418 39.2185
4620 1 3.323 35.8834 35.7105
80 1 0.338315 33.7802 38.0304
3001 1 1.20237 31.6443 39.4525
51 1 2.41741 34.8256 37.7159
2317 1 5.71345 32.6187 38.5167
4949 1 4.59538 34.4579 36.8514
1506 1 4.05802 34.4665 39.3805
1031 1 7.25209 33.8988 37.3789
6922 1 7.76594 34.1093 39.6094
2523 1 9.67222 31.4931 39.3724
2935 1 6.65245 36.01 38.4113
3400 1 10.4128 35.099 37.8733
2993 1 8.51082 36.1188 39.5575
5005 1 9.68967 33.7057 52.6043
5246 1 15.1042 -0.285938 38.3566
627 1 12.7201 32.3363 37.3562
7958 1 12.3758 34.3579 38.5333
4840 1 14.4502 33.8385 37.0604
4055 1 14.2035 32.2641 39.2204
7426 1 16.6321 34.6516 37.974
7101 1 18.4859 32.6905 38.5957
597 1 15.965 32.1181 37.717
4550 1 18.7576 35.6836 38.1063
5648 1 17.737 35.7537 41.0307
873 1 34.4936 26.9494 35.7544
2695 1 30.5928 33.438 50.0458
302 1 20.6301 33.3761 39.4717
3389 1 23.7911 0.392326 40.2149
1484 1 22.3347 35.441 39.1298
3489 1 21.1603 34.5728 37.1486
5745 1 22.748 32.7099 36.2703
1663 1 8.57145 27.7586 35.8919
468 1 23.7191 33.4885 39.1234
4533 1 25.5591 33.3116 37.2553
6146 1 27.133 35.0076 37.5651
5414 1 24.103 30.9314 37.6931
5082 1 26.8677 34.3232 40.0201
7560 1 29.5723 31.2169 37.3001
7971 1 30.4299 0.396352 38.4264
3554 1 31.8657 34.5497 37.3149
3075 1 27.7218 32.9002 36.6825
1991 1 28.75 35.3324 39.0438
5499 1 29.7348 33.9888 37.1629
3586 1 31.6055 34.2839 39.8492
7585 1 11.6397 34.7364 35.8585
4072 1 36.0396 33.0204 40.2564
4135 1 33.3029 35.9765 35.8673
7170 1 35.8316 32.9073 35.7127
5718 1 34.3928 31.1342 41.4081
7834 1 34.7488 34.1958 37.1984
7024 1 33.5587 33.6772 38.9157
3802 1 1.57407 0.841887 41.6138
3897 1 -0.45118 1.54019 40.08
2536 1 36.1056 0.49174 42.2571
3087 1 2.4247 3.14855 42.656
5267 1 3.81573 1.91848 41.1825
7756 1 3.1155 0.476215 43.4943
3420 1 0.947421 1.61749 43.8294
5036 1 0.611572 2.56304 45.9709
5247 1 5.66841 1.68861 44.4777
1182 1 7.8663 1.30289 41.2915
4211 1 6.01684 2.94479 41.2022
4359 1 4.6952 3.41122 43.1758
1795 1 4.59542 35.4921 43.8619
368 1 9.45102 2.061 42.594
4829 1 7.17765 2.89719 43.1597
5177 1 7.48352 -0.427305 42.8041
4295 1 8.95377 1.32787 44.4554
7511 1 11.972 2.01376 40.7463
2145 1 11.4432 0.814704 42.6949
5840 1 13.9086 1.56061 42.8245
5244 1 13.402 2.26917 44.8056
2909 1 16.4459 0.457683 43.9778
615 1 16.7901 0.603607 39.4489
4452 1 10.9991 3.0308 44.329
1429 1 17.4513 2.60184 39.6411
3265 1 20.1226 2.55887 40.8081
1331 1 17.1631 2.4185 41.9672
2285 1 18.8042 0.823847 42.7346
1092 1 18.1377 0.209508 45.1166
3890 1 24.9913 3.19422 42.071
5394 1 21.2746 0.675962 41.0087
1009 1 21.7859 1.74059 43.1859
2868 1 23.0485 2.50657 41.0104
5156 1 20.7785 -0.550402 43.0308
4214 1 22.7105 4.224 42.6559
6399 1 22.9512 -0.552571 43.9315
1330 1 25.84 1.34374 40.1462
5586 1 24.3284 0.552861 42.441
7250 1 26.0834 35.8956 43.4928
6800 1 26.8792 3.46337 39.768
5720 1 27.3264 2.45471 42.0604
2619 1 23.757 2.37796 44.2633
3344 1 30.4776 35.9275 40.6549
2869 1 29.6653 1.54743 41.0414
3640 1 30.1138 2.19089 43.7121
7075 1 30.4901 0.19121 42.6986
363 1 31.9886 1.78724 39.9874
3356 1 31.7874 2.85656 41.8774
6790 1 28.1696 0.548893 43.18
7553 1 27.7821 34.7334 44.4431
5839 1 32.1767 35.7519 43.8532
2212 1 33.7042 3.19244 43.5572
7173 1 34.3456 2.07866 40.8062
525 1 33.5303 0.793919 42.7575
1641 1 2.32101 5.37723 41.9681
1796 1 1.70759 2.92047 40.4887
3424 1 2.85276 7.09229 39.8653
6845 1 -0.476753 5.3424 41.8535
1400 1 0.872743 6.84834 43.1774
7093 1 0.873985 3.82935 43.9981
2850 1 3.95819 4.09055 40.9679
4449 1 4.64135 6.28167 41.0857
4157 1 7.94609 8.02269 41.0697
7015 1 6.73149 5.26653 40.6269
1723 1 3.18655 7.32277 43.0524
5030 1 6.61928 5.46822 43.1323
2127 1 11.0391 4.54404 41.4662
2122 1 8.62753 3.99739 44.5016
2138 1 8.58997 4.53892 42.1099
5195 1 10.9162 6.91741 41.4578
207 1 9.33042 6.25452 43.2797
7179 1 11.4424 5.4302 43.7648
5634 1 15.2656 3.43338 43.0929
831 1 12.9843 3.5475 42.1371
4437 1 13.4983 4.31247 44.4577
1274 1 13.3245 6.26806 42.6527
5983 1 15.4708 5.74398 43.4036
5248 1 16.1194 4.70352 40.9388
5830 1 12.1907 7.84509 44.5106
7007 1 18.5163 4.39602 41.0504
6838 1 19.3596 3.16539 43.163
5964 1 17.4876 7.00305 41.1727
1647 1 20.4569 7.55631 41.8225
2076 1 17.9195 5.35936 42.914
1494 1 18.4796 7.57243 43.4751
6056 1 17.5362 2.52947 44.2434
5723 1 20.9831 4.40288 41.3262
6303 1 24.1707 5.0702 41.0835
6387 1 21.1205 3.8012 44.6986
4228 1 20.4923 5.43836 43.1289
3728 1 23.403 6.14599 44.7143
2445 1 22.9343 6.83872 42.2909
1167 1 24.884 4.29599 43.9738
3485 1 26.7959 4.70409 41.8679
7660 1 28.0358 6.29994 39.9124
3680 1 27.1082 4.58647 44.2516
3968 1 25.892 6.89824 41.6505
1424 1 28.1713 6.11855 42.7313
6388 1 28.0852 2.52946 45.1208
2123 1 29.1518 3.64217 40.7108
7875 1 30.3215 7.18782 38.9656
6232 1 29.5855 4.04385 43.1512
683 1 31.1087 4.70067 40.2634
5640 1 30.0616 6.14015 44.0371
7336 1 31.0212 4.03712 45.2821
480 1 35.789 2.57438 42.561
2925 1 32.1309 6.99198 42.4111
1171 1 34.2431 7.84785 41.1211
4210 1 33.4711 4.32863 41.191
3506 1 31.8736 4.75337 43.0912
3000 1 34.3379 6.10728 43.2335
30 1 -0.508067 9.91303 43.8822
5110 1 35.6472 8.19672 42.7778
1960 1 0.257391 7.42203 40.5281
5756 1 0.892014 9.44046 41.743
4717 1 3.16807 8.9593 41.1424
1574 1 0.0235195 11.6517 40.6065
5978 1 1.08113 11.8249 43.138
3568 1 7.5274 10.3481 41.4473
5959 1 5.20437 8.47378 40.0022
7074 1 3.50929 10.1379 43.0496
3668 1 5.7768 8.45495 42.2476
3341 1 6.16578 10.7943 45.8603
7253 1 4.91739 10.6354 40.8723
6943 1 12.695 10.0903 39.8539
7666 1 10.6898 9.15414 40.8624
5270 1 7.42049 7.3697 44.0468
1598 1 7.97507 9.66808 43.7386
7562 1 9.62547 8.38197 43.5006
6299 1 9.68002 10.9883 41.5205
4137 1 8.38965 12.5347 43.6686
4442 1 15.1023 9.96411 40.9497
2939 1 10.1254 11.4593 43.8719
5968 1 11.59 9.1793 42.8675
7651 1 15.2369 7.18437 41.8367
4280 1 13.6886 9.82829 43.1473
293 1 17.0805 8.95726 39.9744
4545 1 16.411 8.72698 42.8998
7031 1 15.9622 11.0937 44.3578
5354 1 18.8583 11.5352 41.5239
5651 1 18.8849 9.1707 42.0193
7249 1 16.9281 10.5243 41.9181
5028 1 19.4484 8.70164 39.6744
2128 1 20.5161 8.50561 44.5401
4198 1 22.1559 9.26237 42.6329
5514 1 18.2394 9.80476 44.1686
57 1 23.5194 11.2555 42.5034
146 1 20.9589 10.2681 46.0759
6871 1 23.4108 8.58926 44.5352
1875 1 23.7321 10.1087 40.4094
279 1 24.3179 8.69628 42.2673
4382 1 25.9683 10.7709 42.0774
2475 1 26.5072 8.84219 43.5442
1008 1 27.8108 8.00531 41.4081
923 1 29.8596 6.35147 41.4216
3036 1 28.6442 10.2372 42.4937
4914 1 30.9957 8.4448 41.4156
3513 1 31.1264 10.6175 42.645
4062 1 28.2288 9.71861 39.7306
3342 1 31.4412 8.61125 44.1844
7310 1 33.3214 9.31986 42.7132
5516 1 35.3724 9.70085 40.473
4855 1 32.3811 7.0528 40.164
6993 1 33.0916 11.8162 41.3816
7561 1 34.1435 8.62497 44.6725
4526 1 35.1027 10.9613 42.25
6358 1 1.31592 14.5569 43.371
2673 1 2.16231 14.2157 41.2855
2640 1 2.84611 14.9246 45.3895
3025 1 35.421 13.4345 41.5332
7320 1 35.9986 15.1282 44.0427
3481 1 3.58752 12.9048 43.6925
1586 1 4.53781 13.747 41.4153
3636 1 5.59031 11.5458 43.562
7084 1 2.23132 11.506 41.3597
2278 1 6.04733 13.9996 43.457
6614 1 3.90426 15.0527 43.2403
3405 1 4.60393 14.9801 39.6687
3789 1 6.52504 14.6793 41.4698
7257 1 6.70955 12.4557 41.9247
297 1 10.7946 13.1751 42.2356
6616 1 8.51884 14.013 41.9542
4358 1 11.1747 15.4047 41.633
3006 1 12.6971 13.7292 39.8695
155 1 12.8876 15.9467 40.2581
3431 1 14.4759 12.0385 42.4072
7662 1 14.8786 13.5813 41.0361
435 1 16.0905 13.941 38.6958
6293 1 12.1281 11.4254 41.5954
1672 1 13.0925 13.8581 42.7173
2269 1 11.4595 15.4557 44.2382
2755 1 17.8636 14.3645 40.5984
1981 1 17.2066 12.9974 42.5133
7165 1 17.7064 14.8253 44.3253
5975 1 18.787 12.633 44.6194
5353 1 15.4344 14.775 43.2449
3516 1 21.0999 13.2161 45.2323
864 1 19.5486 13.7354 42.0939
1011 1 18.0951 16.8072 40.7879
6205 1 20.5148 10.8163 43.433
2211 1 21.3537 14.8524 43.8945
1478 1 21.529 14.5441 41.0294
7752 1 21.6593 12.6253 42.7504
6458 1 24.7305 12.3078 40.3415
794 1 23.6284 13.5681 44.8208
4350 1 23.5112 13.9909 41.8569
3759 1 25.0415 12.943 43.3024
6603 1 26.6382 13.5072 41.5738
7831 1 26.7299 15.5632 39.7978
2941 1 27.0061 11.5796 39.7573
7154 1 30.6354 14.2195 40.7843
3492 1 30.5553 11.755 40.5764
1190 1 28.8032 12.8858 42.526
2151 1 29.8383 14.9542 43.3915
5917 1 28.5929 13.7014 44.6633
5396 1 31.3286 13.341 42.5383
3184 1 27.4605 15.3588 43.9146
5987 1 32.3423 12.4049 39.1846
62 1 33.0686 14.1889 40.8618
4685 1 33.771 13.9598 43.2928
6915 1 31.9838 15.3637 42.5818
3677 1 33.7714 15.9335 44.2386
64 1 33.1865 11.7967 43.6601
2397 1 31.6462 13.5059 45.2296
1508 1 0.968395 18.1831 40.8198
4913 1 35.5485 17.2952 42.9536
7261 1 0.143676 15.8736 41.7095
7580 1 0.617072 17.3743 44.3408
6948 1 2.46105 17.2697 42.7218
5584 1 4.79166 16.6166 41.6768
7321 1 4.67618 16.7571 44.5924
7644 1 4.47674 19.1569 44.9151
1956 1 8.34246 18.9779 43.0456
1236 1 7.20668 16.9005 41.7734
7347 1 7.14296 16.0761 43.8182
3236 1 11.5342 18.0584 45.6047
5809 1 9.34441 16.4536 42.8721
157 1 11.0072 20.0988 44.34
6148 1 9.94463 18.2446 41.158
6222 1 13.4295 16.3299 43.4413
2455 1 11.3304 17.8787 43.3665
5470 1 12.2144 19.5899 41.7695
7554 1 13.8596 17.8031 41.4775
2199 1 13.5167 18.9167 43.6003
2531 1 15.9076 18.5621 42.5075
3170 1 17.0294 16.4674 42.6024
2049 1 15.6232 15.7109 40.1531
7633 1 15.8691 18.1895 40.4026
5181 1 17.384 18.21 44.3381
215 1 17.8336 19.2539 41.2945
4993 1 19.2987 15.7887 42.3524
4678 1 22.0241 16.7932 42.2034
397 1 20.0712 18.9305 40.5988
5406 1 20.8848 16.7082 39.8026
5815 1 23.4918 16.1366 44.0498
1978 1 21.8535 19.1129 43.0242
4195 1 25.4001 15.0961 42.8735
4037 1 22.3413 18.6757 40.0026
4129 1 24.7325 16.2811 40.6039
3016 1 24.0241 17.9458 42.1844
283 1 25.5165 18.0921 44.0115
3273 1 28.4535 15.378 41.291
3559 1 31.4148 17.525 44.0159
3157 1 26.9305 17.1636 42.2629
5021 1 29.942 17.277 41.5071
6927 1 28.7975 17.382 44.0077
6771 1 31.4976 19.0966 42.4569
7733 1 29.6413 19.5273 44.9292
1030 1 34.4708 15.8395 41.3284
2924 1 32.8869 19.2834 44.838
2032 1 32.186 17.8454 46.2776
1200 1 35.0915 18.1982 45.1015
1550 1 31.3625 20.4867 46.3825
5094 1 34.4677 20.9917 44.6462
2863 1 -0.283132 20.337 40.4511
1259 1 2.73228 23.1609 43.714
4549 1 2.47318 20.7407 41.9084
4847 1 3.30791 23.0876 41.2207
3578 1 0.293828 19.427 42.8251
7265 1 0.135934 23.2094 44.3681
786 1 5.6868 23.022 40.4744
7000 1 2.28821 19.5778 44.3572
2288 1 3.97457 21.5338 44.5018
3108 1 5.15303 21.7772 42.541
5954 1 7.07938 22.6382 43.3185
7400 1 5.75938 18.9905 42.7615
4451 1 8.84809 21.2656 44.3868
7346 1 4.95378 23.6425 45.0099
5741 1 7.48087 20.7299 41.9973
6196 1 8.55728 22.6495 41.2902
1724 1 9.85206 20.7416 42.3598
2064 1 9.16495 20.9551 39.7662
5149 1 11.1524 23.1547 42.3233
126 1 12.7998 21.5403 43.1719
6862 1 12.7534 21.7543 40.5045
439 1 15.0775 22.744 40.2992
3954 1 14.397 20.5915 41.8787
2398 1 14.6436 21.7102 44.6337
1321 1 13.5037 23.8136 42.4067
3524 1 12.7143 22.472 45.4685
6544 1 16.7234 20.8162 43.4238
2117 1 16.913 21.2159 40.7627
4842 1 15.5058 22.8417 42.7979
1082 1 18.8232 21.7769 42.1828
7395 1 19.481 18.276 43.2463
2279 1 19.2261 21.1278 40.018
5595 1 20.4198 23.1945 40.7409
5163 1 23.4002 21.051 42.49
4223 1 20.3285 20.9819 43.7787
1897 1 23.1755 21.6508 44.996
4484 1 21.6659 22.4209 42.7659
119 1 26.2871 19.1841 42.1834
3073 1 25.4712 21.249 43.6853
3019 1 26.9026 22.5605 44.4821
2856 1 27.0601 19.9895 44.2301
1352 1 27.7439 21.1287 41.8313
3655 1 25.4293 23.1122 41.386
5758 1 28.8794 19.192 42.5191
6944 1 27.6035 23.496 42.4237
5250 1 29.1884 21.7977 43.6347
3871 1 30.191 21.5409 41.2888
6280 1 30.8811 23.5091 42.3957
7389 1 32.9848 24.4864 41.4448
2358 1 1.2161 21.1567 43.7261
4633 1 31.6726 21.212 43.284
4467 1 33.5647 22.559 42.7989
7406 1 35.817 21.826 42.7273
1313 1 2.84647 25.3297 42.2101
4202 1 1.09477 23.8943 42.2599
1326 1 1.49615 25.7828 44.147
6596 1 0.399779 26.3316 41.5736
7661 1 2.92469 26.8579 40.1785
2116 1 5.00211 24.3642 42.4005
2769 1 7.20618 25.1617 41.3007
312 1 6.92299 26.3332 44.0583
2202 1 4.86521 27.0787 42.3343
4843 1 7.16195 28.101 42.5014
7738 1 4.46699 25.6523 44.3692
5996 1 9.43154 24.7284 41.0916
4925 1 8.92537 24.189 43.1198
712 1 10.8652 25.6251 43.085
7157 1 9.16185 26.7238 42.44
842 1 10.7627 26.5736 40.4274
448 1 10.9249 28.0047 42.1344
775 1 14.0983 26.5507 44.8009
7960 1 12.2607 24.8559 40.7073
2213 1 15.1259 25.1524 40.3407
6071 1 13.153 26.3274 42.2487
2120 1 15.4072 25.3642 42.7518
519 1 17.2248 24.2122 41.7749
7151 1 17.5782 26.0984 43.6032
6374 1 16.5041 27.1659 41.5475
3515 1 19.5624 23.9706 43.1017
2361 1 15.2839 27.9831 43.3638
7565 1 18.6334 28.3678 42.1003
1827 1 17.8991 27.9956 44.5154
3972 1 23.183 22.9174 41.0507
7324 1 23.4249 28.2725 40.1444
7739 1 22.1866 25.2019 43.199
5160 1 21.8688 25.2199 40.8096
686 1 19.8285 26.9883 43.5342
3659 1 24.0256 23.4766 43.3626
7183 1 25.031 26.3884 38.2362
7036 1 24.0334 25.6972 40.1158
6632 1 25.4248 27.404 40.9104
2434 1 24.7795 25.5689 42.264
530 1 24.7453 27.445 43.9676
2840 1 29.0406 24.1064 44.0772
6925 1 32.2784 28.0081 39.436
5165 1 30.6304 25.4015 40.3796
3010 1 28.259 26.1465 41.8805
390 1 32.1726 26.7595 41.6651
7246 1 30.4137 25.8033 43.4533
4527 1 35.7308 25.1364 39.9072
6143 1 34.5277 27.0388 42.6315
7274 1 32.7955 24.9405 43.8514
787 1 35.6129 25.2806 43.6586
2782 1 35.2399 23.8394 41.7668
308 1 34.7269 27.351 39.3971
7254 1 33.9989 26.5002 44.9358
924 1 2.47791 28.0164 42.4321
1658 1 1.93853 30.446 43.4482
4769 1 -0.0976778 28.4829 41.4173
6369 1 0.486072 31.0056 41.8413
3813 1 1.85219 29.5419 40.4301
461 1 3.536 32.1105 40.5522
7090 1 36.0255 30.0644 43.5471
1653 1 6.19518 27.6198 39.9751
3900 1 3.69439 30.1334 42.3451
160 1 5.40796 30.1337 39.4401
4934 1 6.02016 29.9146 41.7571
1258 1 4.53201 30.4542 44.8363
6195 1 10.8204 30.0719 41.1257
2776 1 7.82757 29.3038 40.0801
1411 1 9.05659 28.5174 44.2272
4710 1 10.7093 30.5207 43.2547
290 1 8.52874 30.1682 42.3625
5022 1 7.51338 32.2558 42.7936
2701 1 14.3621 28.1346 40.9368
2386 1 12.5838 31.8319 44.8501
7105 1 13.7353 29.5234 44.6454
5471 1 14.7035 30.6401 41.3228
6846 1 13.151 29.8312 39.7666
7413 1 12.8492 31.5059 41.9026
554 1 13.0928 29.1619 42.4737
4296 1 16.7168 30.2585 44.3576
7839 1 14.5728 31.5621 43.5724
4118 1 19.9116 29.4972 40.3018
6203 1 18.5837 32.6425 44.216
2354 1 16.5393 32.1275 42.686
4114 1 19.1601 30.7949 45.3175
4774 1 18.5338 30.6971 42.7677
1953 1 20.506 29.3239 43.5942
5652 1 23.6664 30.3861 40.0742
6602 1 21.0064 27.8261 41.5953
3991 1 23.4074 27.3923 42.1412
5801 1 22.2446 30.4148 41.9941
7484 1 24.3671 29.6141 42.8037
6687 1 28.1251 27.9625 40.8593
1600 1 28.795 29.859 42.1491
685 1 26.8798 28.0634 43.1195
2382 1 26.0321 29.6563 40.9218
2843 1 27.4946 31.8247 41.1708
1596 1 26.7028 30.5103 43.0198
6608 1 30.2454 28.544 40.7128
7721 1 30.0465 31.1216 40.4141
3595 1 31.3599 29.8669 42.5099
209 1 29.7444 27.8917 42.9104
772 1 32.2636 27.9278 43.551
6940 1 29.653 30.1354 44.4411
6777 1 31.8064 31.1146 44.9074
1804 1 36.1138 30.0791 39.9598
7150 1 32.2822 32.2787 40.9909
1747 1 32.7372 30.4083 39.632
3877 1 -0.130137 27.588 43.645
295 1 34.0803 28.9163 40.8374
2555 1 33.4805 30.1806 43.3327
7820 1 34.1171 31.3323 44.934
5103 1 2.62121 36.1329 40.4516
5188 1 1.40905 35.3966 42.9781
1916 1 -0.351187 35.062 41.1244
40 1 1.78086 34.1093 40.1532
1227 1 0.618796 33.4884 43.9471
3724 1 2.27004 32.9091 42.1017
4529 1 3.33079 33.3357 44.186
678 1 4.98246 31.8584 42.774
2400 1 6.14357 33.9849 42.9886
6607 1 5.80811 32.9504 41.0108
5601 1 5.30614 0.810829 42.5098
7354 1 3.52865 34.8796 41.9153
5803 1 9.69389 -0.473958 41.5787
3508 1 10.3468 34.2964 40.1524
5990 1 5.8778 35.6799 41.0952
1475 1 10.1254 32.4828 42.0263
5487 1 8.34441 34.3699 41.7996
3110 1 10.454 32.977 44.8294
542 1 9.60622 35.9877 44.2178
7487 1 13.6805 -0.0466311 40.7478
5095 1 12.9039 34.2405 40.518
1083 1 13.4953 33.6011 43.4246
223 1 15.2107 34.6742 40.0303
3667 1 14.6545 32.98 41.4698
392 1 11.381 34.4921 42.2542
6060 1 14.0691 35.977 43.0095
3346 1 16.4971 32.5479 40.4046
5328 1 20.0851 35.2437 40.5763
5637 1 20.2137 31.708 41.1614
7812 1 18.6546 33.2449 41.6196
6684 1 15.8811 0.289569 41.8875
2514 1 18.4477 35.1951 43.2868
6773 1 21.1999 31.9479 43.3735
3984 1 22.8011 32.5095 41.446
6631 1 22.6604 35.1456 41.6634
228 1 24.1777 34.185 43.1717
2600 1 20.7327 33.8764 42.3636
202 1 29.1917 33.5974 40.7662
4699 1 27.2609 -0.413426 41.2944
1573 1 24.6581 34.7927 40.872
3348 1 25.2036 32.0741 41.9401
6068 1 27.022 33.8042 42.4677
6797 1 30.4645 32.3123 42.5653
6477 1 29.9135 36.0624 45.0573
3896 1 29.269 34.9445 42.6768
1572 1 28.352 32.0093 43.6239
4314 1 33.0262 32.8834 43.0596
6067 1 32.8078 35.9985 41.1465
7837 1 31.4566 34.4964 42.0539
2314 1 34.0964 33.9253 41.3487
1264 1 34.5296 35.4951 43.0524
3820 1 35.5788 32.4109 42.869
1892 1 34.8663 36.0743 39.7327
3338 1 3.39617 2.61383 45.1349
3738 1 -0.157665 1.36713 47.624
2053 1 2.29331 35.9503 45.1945
796 1 2.38578 1.24247 46.701
2193 1 4.25896 0.530511 45.8602
4939 1 7.36815 2.4096 45.9013
7904 1 3.28203 35.9178 47.4288
475 1 6.11202 -0.149451 47.0091
7156 1 5.06287 2.89108 47.0673
3336 1 8.58061 0.390041 46.8975
640 1 9.90327 2.55587 46.4892
4767 1 10.1198 35.2919 46.4189
6692 1 10.6635 34.9896 48.7187
6528 1 11.263 0.787611 45.5709
2441 1 10.7217 0.623855 47.7897
3238 1 14.0198 0.0350508 45.5415
6448 1 13.154 1.59076 47.2483
7968 1 12.8205 -0.116203 49.6221
7878 1 14.7832 -0.109531 48.3931
5016 1 12.6551 35.8385 47.06
2954 1 15.8752 34.6107 47.685
2232 1 16.0683 1.70636 48.4191
5084 1 16.443 -0.0737068 46.6952
1882 1 17.8348 2.07538 46.6995
3727 1 18.9914 4.87661 45.1933
2617 1 15.0754 3.09842 49.911
3092 1 18.8074 6.32623 47.2638
6466 1 15.7822 2.05234 45.3848
7166 1 19.88 1.7345 45.018
3996 1 21.8195 0.650164 45.9591
2443 1 21.6304 36.0693 48.0071
857 1 22.1037 2.99818 47.1151
1481 1 22.7155 1.6449 48.7161
1979 1 27.5743 0.296457 45.5124
2457 1 25.9218 2.82573 45.9752
2922 1 23.645 35.5379 46.7787
2841 1 24.3387 1.67492 46.8596
5591 1 26.1474 1.99577 44.1202
1278 1 27.8784 2.66879 47.6858
927 1 24.7869 0.276103 45.1195
3323 1 25.874 2.61451 48.5454
5919 1 27.6141 0.283817 48.9959
1962 1 29.0417 -0.518625 47.39
3643 1 29.8518 1.45673 46.3116
2042 1 29.6699 1.38377 48.9225
4794 1 32.0434 -0.0578622 46.1895
5336 1 31.459 2.82208 47.48
7641 1 35.3353 3.65036 45.1846
6133 1 35.3993 1.29779 45.228
434 1 32.1577 1.50743 44.4221
6708 1 33.7175 1.98513 46.513
7489 1 34.6451 0.101256 47.6196
3736 1 32.6494 0.932567 48.6124
5038 1 32.9335 3.96192 48.787
3028 1 0.50917 4.92146 45.9862
4849 1 1.19937 7.02083 45.6886
4044 1 2.70397 5.04004 44.3402
2768 1 2.44006 3.92117 46.7354
3894 1 -0.274131 6.7688 47.6561
1577 1 0.475672 3.52196 47.9662
7893 1 4.7347 6.54147 44.5569
2125 1 3.4727 7.25342 47.1867
6363 1 6.20432 4.29079 45.1851
7977 1 4.97295 5.54188 46.8642
4874 1 4.84701 7.72743 49.1627
2678 1 6.7333 6.43906 48.0042
4709 1 7.85273 5.81892 45.881
5239 1 5.86754 3.74812 49.164
5748 1 7.10452 4.28455 47.4789
2767 1 10.4669 4.95479 45.7877
3804 1 12.4629 3.66279 46.4647
371 1 8.92916 5.81618 48.0081
5561 1 11.6182 6.4395 47.408
1869 1 10.605 4.18304 48.5143
4158 1 14.2866 5.75033 45.8135
5980 1 12.6537 2.99268 48.8908
6798 1 14.7457 3.09413 47.2452
7731 1 16.2816 5.91447 47.2447
3817 1 11.9397 9.07791 46.8875
3501 1 16.4133 4.2784 45.5745
5407 1 17.0684 3.87187 48.3094
4053 1 15.3202 5.60988 50.0836
1749 1 17.6333 2.22571 50.2731
7993 1 16.8439 6.91555 45.0933
2929 1 17.4276 6.73934 49.7256
7021 1 23.776 4.041 45.997
4033 1 19.8685 3.75534 47.0402
2713 1 20.9104 6.24347 45.2874
6076 1 19.1719 4.8663 49.2766
199 1 21.7681 5.19825 47.0042
4935 1 24.1354 3.99305 48.4305
699 1 24.3751 6.24975 46.7702
5107 1 26.6053 4.8523 47.0008
3964 1 27.5182 6.7594 45.2968
1732 1 26.747 7.27134 47.2222
3741 1 25.3757 6.04392 49.0673
7579 1 29.1139 4.94376 46.2683
2159 1 29.748 3.83001 48.4737
280 1 29.0154 5.93866 48.4715
695 1 31.4956 5.86329 47.0691
3899 1 29.8252 7.43501 45.8055
4380 1 32.4798 6.74294 44.7738
2155 1 33.2458 4.65681 45.4508
2470 1 34.572 4.38293 47.3805
2834 1 35.6101 5.95578 45.1557
2792 1 33.8145 6.50512 46.6743
3196 1 32.1671 6.10707 49.4203
1198 1 34.5877 6.42882 49.1728
6051 1 33.1915 8.09387 48.1584
2689 1 1.64558 5.55622 48.1572
2442 1 1.60502 9.2614 43.9774
7349 1 2.71415 8.9354 45.8402
451 1 0.635715 8.55296 48.2047
6119 1 2.49141 9.47802 49.1379
6227 1 3.69396 10.9167 45.1879
7953 1 0.671957 10.6033 45.8929
5427 1 4.2921 10.0286 47.5041
1983 1 5.78617 11.853 47.6966
6228 1 5.27584 9.08299 44.4142
2055 1 6.12017 8.11873 46.5905
5961 1 4.28514 11.1201 49.3974
6873 1 6.29048 9.60827 48.5879
2545 1 8.6591 11.1 45.6206
4606 1 9.64913 7.26118 45.4739
6875 1 8.10026 8.83515 46.6692
2440 1 8.7072 8.55505 49.2425
3662 1 8.1548 12.3525 47.5158
2291 1 10.2356 10.6057 47.2574
1807 1 10.081 7.9928 47.5602
4696 1 10.4108 9.62882 45.1157
1894 1 12.3739 10.9451 44.8607
6309 1 12.6329 8.08042 49.1467
4539 1 11.6504 10.5978 49.1372
6626 1 13.8594 9.93094 48.1197
7645 1 14.5783 7.76155 44.2332
998 1 14.1182 9.58714 45.6613
2392 1 16.4656 8.98313 45.7214
599 1 14.0358 7.81206 47.0157
2762 1 15.0238 7.9441 49.1242
6558 1 16.8131 8.25159 47.6524
6640 1 18.7009 8.2402 45.9206
5566 1 18.5523 11.3213 48.9922
4305 1 15.7698 11.0413 46.7878
4362 1 18.5105 11.6353 51.381
5994 1 18.3299 10.6859 46.5658
866 1 17.4923 9.31937 50.1137
2930 1 21.1812 10.1207 48.7236
878 1 20.8095 8.18095 47.1768
3098 1 19.0472 9.26581 48.4605
3168 1 20.7922 6.6909 49.0508
6295 1 22.699 11.4833 44.6328
6284 1 25.4443 6.72004 44.076
6124 1 23.3756 9.99618 46.8914
3995 1 23.0694 7.71058 48.0755
1800 1 24.9531 10.4586 44.2973
1743 1 25.6814 11.5156 46.2628
6290 1 25.3458 8.88042 48.6067
5201 1 25.3104 8.83077 45.7235
6864 1 28.093 9.64765 45.3853
4720 1 29.3435 8.3094 43.6114
288 1 28.2272 9.18871 47.6578
2461 1 29.8005 10.3592 49.2528
121 1 30.2591 9.94266 45.8808
5012 1 29.9273 11.7923 44.5633
2607 1 27.7877 11.7968 46.4943
5997 1 30.6148 8.24877 47.816
6039 1 32.2697 10.8495 45.5376
6061 1 36.0782 8.50306 46.0044
2376 1 35.2468 9.80222 47.5185
4923 1 32.4017 10.3832 47.9472
4557 1 34.704 11.1817 45.5444
5199 1 32.647 8.57294 46.2905
5568 1 35.6464 12.5449 43.9109
289 1 0.247749 10.6589 49.4954
2307 1 0.118935 12.614 47.3157
2927 1 1.52481 12.9155 45.4854
7169 1 4.53619 13.0302 45.794
2797 1 7.71182 15.5562 45.8309
4128 1 5.59504 15.0861 45.8175
3978 1 7.35276 13.2163 45.6588
3412 1 6.23218 14.1202 47.9377
134 1 2.15046 11.5221 47.705
6541 1 5.8448 13.0515 49.9596
705 1 8.37294 14.8482 48.5427
7754 1 3.53592 13.6678 50.9846
2688 1 9.2271 14.6394 44.5308
1824 1 10.3971 15.1956 46.6116
1256 1 10.1846 12.9357 46.2676
3988 1 8.15072 12.9432 50.2047
443 1 11.9181 13.4725 45.0998
3958 1 14.3461 15.0297 45.2141
5873 1 12.4808 12.2675 47.3906
7573 1 14.6154 13.0069 48.4015
4474 1 14.0289 12.648 45.4622
6688 1 10.092 12.7614 48.8407
213 1 17.1897 12.8256 48.0362
2294 1 16.5291 13.0344 45.6561
4690 1 19.9257 13.054 49.8519
2156 1 15.4603 17.6234 48.0033
2860 1 16.2981 12.3048 50.1345
5191 1 18.8199 14.2857 46.1523
1271 1 20.2872 12.2568 47.564
354 1 18.5705 14.8155 48.8141
2316 1 21.6297 14.054 48.5065
436 1 22.8556 12.2051 47.0583
7097 1 22.1709 15.2689 46.2075
7737 1 23.5625 17.5754 45.8469
7889 1 22.2608 12.0093 49.8487
6043 1 26.0471 13.4214 45.2198
2846 1 27.0546 11.8122 44.2165
1902 1 24.4051 14.1196 49.3897
680 1 24.1038 14.3888 47.1561
373 1 27.1787 13.3163 48.1961
2200 1 29.2118 13.6596 46.9354
1339 1 29.6131 13.0043 49.5989
5871 1 30.7699 11.8169 47.255
5902 1 29.9617 15.4819 50.5473
6440 1 35.1891 12.6142 49.2665
469 1 32.9707 12.8522 46.8569
6191 1 33.9579 14.5518 48.4864
3343 1 34.9292 14.061 46.1813
4785 1 31.2899 14.1099 48.0244
4471 1 32.5897 15.2681 46.2788
4641 1 2.47024 17.3483 45.8306
2452 1 3.81899 13.5163 48.8384
4864 1 0.675003 15.6062 46.0014
4302 1 2.01502 14.3362 47.5105
7670 1 3.22362 19.9668 46.6198
6283 1 2.41258 17.2869 48.6045
4941 1 -0.196839 17.2219 48.6931
1580 1 4.18657 16.0231 47.5803
456 1 4.43831 18.1546 47.3201
4122 1 6.54554 16.6086 47.7715
198 1 6.74767 17.9598 45.0264
5150 1 7.1399 18.7825 47.302
5269 1 8.1666 17.312 49.8459
1649 1 5.68445 17.9905 49.7985
4152 1 9.15954 17.147 47.4846
4309 1 9.59256 19.5456 45.8665
5889 1 9.14125 17.2282 45.0195
6070 1 9.13225 19.2815 48.2091
3818 1 11.573 17.1263 47.7737
4199 1 13.7465 17.4199 45.9328
7973 1 14.0355 15.8577 48.3566
5510 1 12.6722 14.8765 46.9675
6461 1 15.7103 16.649 44.6573
938 1 12.3618 15.5937 50.0733
7035 1 16.071 14.9693 46.9846
4063 1 19.1829 16.4911 44.779
6789 1 17.6647 16.4629 47.1491
3710 1 16.7261 18.6303 46.5624
6138 1 15.4792 20.0513 49.333
6780 1 19.1855 20.4132 47.9877
921 1 19.2817 18.568 46.4288
5812 1 20.2334 16.0174 47.2299
1656 1 21.3522 17.3188 44.7295
2530 1 19.0028 17.0481 49.1996
4146 1 21.6466 18.062 47.6053
6207 1 26.1028 15.6852 48.1472
3561 1 23.574 19.3966 47.1099
6918 1 25.7517 17.969 47.2705
1336 1 25.2028 15.896 45.782
6057 1 23.7559 16.4566 48.203
6221 1 27.8774 15.8389 46.213
1497 1 27.3072 18.4802 45.9146
7815 1 28.1477 17.6483 48.4314
2436 1 30.4039 15.4804 45.669
6519 1 29.9563 17.8162 46.4827
5827 1 31.7371 16.4267 48.317
5231 1 29.6722 19.8883 47.9647
46 1 0.171209 17.6591 46.6547
3191 1 34.269 19.2219 46.909
5263 1 35.0016 16.248 46.6952
7917 1 31.0694 21.5977 48.8745
6320 1 32.0804 19.1885 48.5351
839 1 34.0827 17.5093 48.5162
2826 1 1.8409 21.62 45.9141
2714 1 0.0601325 19.7338 45.3692
1591 1 1.15574 19.2189 47.6537
1263 1 2.15108 21.0388 48.8718
4772 1 3.78123 19.2729 49.1357
6717 1 35.9274 22.1605 46.1605
1967 1 2.20652 23.2179 48.7286
5161 1 0.859765 23.804 46.6091
2446 1 6.52901 20.5109 44.4449
3556 1 5.67668 20.5143 46.6753
7635 1 3.81463 22.4249 46.6825
1890 1 4.50234 21.8565 48.7458
768 1 6.42383 22.8203 46.8289
2787 1 8.28224 21.6416 48.4911
5154 1 7.43901 24.3985 45.1326
6600 1 7.99603 21.1341 46.5293
1087 1 10.6554 21.4113 46.4401
6236 1 9.15001 23.0764 46.5164
6368 1 10.3647 23.3389 44.5463
1500 1 11.166 24.274 46.5601
5915 1 15.3472 19.3468 44.9924
5884 1 12.1467 22.6092 47.9835
5182 1 12.9054 19.9521 45.4868
773 1 14.3665 19.6208 47.2235
2075 1 14.7419 21.9977 47.3034
631 1 16.0252 24.3645 47.7099
1408 1 18.8459 20.3639 45.2012
3246 1 16.6878 20.7513 47.3762
2862 1 16.7639 22.3266 45.4893
7559 1 17.9893 22.7038 47.5109
7741 1 17.4681 24.2504 45.3149
5647 1 19.1198 25.3575 49.1159
6538 1 19.4125 22.6276 45.2211
7717 1 21.5447 19.4693 45.5831
3252 1 20.0571 22.7731 48.9259
2059 1 23.6417 21.8658 47.3234
3272 1 21.1853 22.2579 46.8428
4938 1 23.5881 19.4258 44.4705
2052 1 22.7584 23.9679 47.6173
1110 1 21.4022 25.276 48.713
7192 1 25.0416 23.1343 45.83
5895 1 26.1713 21.9241 47.9673
7083 1 25.0806 24.3164 48.0151
1076 1 27.3776 23.4836 49.125
7110 1 25.4601 20.4495 45.9096
1168 1 27.3623 23.9793 46.6103
304 1 27.6726 21.4064 46.2367
5712 1 29.9965 22.3063 46.093
218 1 32.1824 24.7657 50.3132
3888 1 31.8591 22.6763 50.9282
1185 1 28.7126 21.7892 48.0815
239 1 27.3217 19.8783 48.2651
4544 1 29.4017 23.9487 47.7078
7558 1 32.0347 22.5403 45.0714
2697 1 33.8796 21.8458 46.9987
5569 1 32.2443 23.5024 48.0606
5254 1 34.5867 23.6492 45.3715
549 1 34.5067 23.8922 48.1944
1637 1 35.1754 19.9118 48.8371
6615 1 2.79748 24.3631 45.6318
6694 1 1.8628 26.1362 50.0578
4383 1 1.94394 25.6556 47.5623
5089 1 5.60169 27.9311 44.6684
2761 1 3.85166 26.65 46.5018
206 1 5.78318 25.6369 46.281
2754 1 4.25788 24.4123 47.7291
3647 1 6.57067 27.4611 48.0836
5885 1 5.00522 26.1106 49.2818
6624 1 7.45678 24.7072 47.5623
541 1 12.4 24.9318 44.2719
3198 1 9.42645 25.8265 45.044
4479 1 9.05873 28.623 48.1189
4921 1 12.2705 27.9871 44.5027
7979 1 8.02312 27.145 46.1784
7881 1 9.90946 26.2498 47.7405
785 1 12.3186 26.3334 46.2415
2945 1 12.1623 27.6638 48.7119
3673 1 15.8192 25.9584 45.9274
5116 1 14.4214 24.1339 44.6052
1597 1 13.5026 26.3786 50.2529
3885 1 13.8183 24.5354 46.7755
3644 1 13.5009 28.4027 46.6876
2960 1 16.1857 29.1429 48.2641
3746 1 15.9622 28.4495 45.8211
6530 1 14.318 26.6464 47.8558
3577 1 19.5048 24.5367 47.1288
7419 1 20.313 25.1852 44.9402
5813 1 18.5228 28.1639 49.233
5422 1 18.1985 26.384 46.3801
1496 1 17.0042 26.1055 48.5565
5003 1 20.6872 27.4369 48.0835
7153 1 22.048 23.9811 45.2933
7194 1 22.4643 27.3082 44.3306
4056 1 22.0243 25.9876 46.4542
4444 1 24.0346 25.2651 45.4589
3974 1 24.0766 28.153 46.0861
3600 1 23.4917 26.6632 47.9666
150 1 26.1493 24.7893 43.7953
2061 1 26.6385 28.071 45.4238
5485 1 27.6711 25.636 48.4534
4863 1 25.7467 25.5041 49.594
140 1 28.1129 26.0048 45.2855
6315 1 26.0726 26.8348 47.0685
5590 1 27.5287 27.9153 48.3445
6623 1 29.2967 26.5341 47.1767
1722 1 30.9198 25.4857 48.4143
2221 1 29.6627 27.2705 49.4391
6300 1 31.225 24.3617 45.868
5192 1 31.5271 26.655 45.483
2206 1 35.7776 25.5403 46.5096
5883 1 35.8303 26.7406 48.4039
2858 1 33.2313 25.3297 46.9886
5971 1 34.2171 25.8369 50.0043
6077 1 35.9249 27.904 46.417
6046 1 33.4621 27.6441 47.1841
6122 1 -0.288501 26.397 50.6685
5998 1 1.46274 27.4606 45.9879
5667 1 0.633088 29.6692 45.3369
7174 1 2.80601 29.4242 46.8934
1000 1 3.53136 27.8582 48.7495
7238 1 1.2334 27.875 48.2798
1080 1 0.65463 30.2471 47.58
362 1 3.16994 28.6222 44.9117
4038 1 4.46488 30.6226 48.5972
1197 1 5.46622 28.8453 46.7719
7913 1 6.44946 31.1856 46.9464
6960 1 6.91162 29.7615 44.181
6856 1 5.72714 28.8356 50.1518
7555 1 10.5208 27.8657 46.1854
5092 1 8.16247 29.5712 46.3394
3887 1 11.0891 29.5905 47.9462
5184 1 8.85636 30.4302 49.8611
3116 1 8.44397 31.6076 45.4811
7886 1 7.08799 29.8669 48.4664
6304 1 10.4804 30.3021 45.4517
1038 1 15.0197 30.6193 46.2759
1504 1 11.3487 32.6965 48.6087
3980 1 12.6888 31.3463 47.4959
6378 1 16.121 32.6898 45.1973
1090 1 13.9147 29.7033 48.5408
6537 1 20.227 27.8164 45.6261
4360 1 17.2232 31.1774 46.6665
6625 1 18.2006 30.368 48.6197
3003 1 21.209 31.4501 45.7331
2681 1 18.045 28.7899 46.7965
6354 1 20.1837 29.7565 47.3759
3423 1 22.0307 28.7649 46.2768
7478 1 23.597 32.0395 43.7416
6513 1 21.6361 31.6454 48.5671
7200 1 22.5432 29.6575 44.5156
544 1 23.4203 30.8824 46.7239
2613 1 22.824 29.0514 48.5171
1746 1 24.4711 30.5768 49.064
6854 1 20.7859 29.3412 49.9921
2462 1 25.1364 30.4723 44.8306
3360 1 25.5841 29.4606 47.2779
7822 1 27.4725 30.6758 48.3381
6847 1 29.0946 28.5363 46.0288
5276 1 27.9782 32.6968 46.2399
5679 1 30.2978 30.6927 46.6473
2917 1 31.4316 28.1024 47.8581
6223 1 31.7559 29.1082 45.7946
4224 1 32.7731 30.1208 47.6318
4144 1 35.2978 30.1119 46.6932
6202 1 34.4621 28.7111 44.9422
5808 1 35.8372 28.9191 48.8027
214 1 35.0096 31.5857 48.9504
3247 1 34.0375 32.9369 47.3522
6531 1 32.9932 29.722 49.7223
6703 1 1.97697 31.493 45.6344
6118 1 0.859546 35.8932 46.9621
1671 1 -0.0789729 32.8878 47.9059
6197 1 2.40522 31.6997 47.8071
854 1 1.85453 33.5541 46.4106
5101 1 3.68473 33.494 48.148
6064 1 7.28803 36.0264 45.0579
1517 1 4.53238 34.7636 46.0179
4459 1 4.0991 32.1364 46.3007
3596 1 6.24046 32.5785 44.7253
7750 1 6.32875 33.3606 46.9255
6450 1 5.39485 35.2114 48.5919
3557 1 8.55636 33.981 44.1362
5008 1 9.86841 31.3625 47.575
5973 1 7.80747 34.9696 48.1812
7243 1 8.59575 33.2827 46.8206
1797 1 11.894 35.0401 44.4597
49 1 7.81981 32.8931 49.2698
5963 1 16.2006 34.5518 42.3809
298 1 15.5271 34.9828 44.8186
4617 1 11.3688 33.7514 46.7014
2944 1 13.9043 34.0694 46.1499
5593 1 14.9738 32.3322 47.814
5821 1 13.2563 34.3359 48.7264
4390 1 19.7954 -0.471755 46.7382
7664 1 19.4776 32.3883 49.0513
2622 1 16.9875 32.8033 48.3946
364 1 17.8742 34.4001 45.897
7080 1 17.2723 34.9235 49.8354
6848 1 19.0786 34.7356 48.3235
7251 1 20.0423 35.2474 44.7622
6359 1 19.434 32.6459 46.7175
6866 1 23.7551 33.1069 45.6367
1645 1 21.2145 33.8517 47.5831
7197 1 21.9272 34.1619 44.7661
3838 1 23.6778 33.1221 48.0181
4308 1 27.0866 34.8335 47.0526
7402 1 26.132 32.6191 44.4553
3082 1 25.4303 34.9327 45.6729
7437 1 25.7591 32.2649 47.132
991 1 27.4659 30.39 45.7137
5905 1 29.3502 32.384 47.9773
2399 1 25.7446 35.3672 48.6811
2355 1 32.3918 33.7093 45.3615
1908 1 30.1448 34.2165 46.7798
2274 1 30.1586 33.7754 44.3391
1751 1 31.2266 31.255 49.6726
5481 1 32.9907 35.0825 48.1738
6036 1 34.1395 35.885 45.4748
4704 1 31.8818 32.209 47.1235
5099 1 35.7185 34.662 46.8894
4399 1 -0.363384 32.2435 45.5958
2134 1 34.7976 33.6628 44.6509
5828 1 -0.240808 35.9886 44.3803
2516 1 0.735124 2.44473 50.2705
3734 1 2.74947 2.39299 52.2983
3434 1 1.85526 0.728629 49.2391
626 1 -0.321034 -0.340468 49.6049
4440 1 3.60405 0.185858 51.4854
7186 1 3.04559 3.0396 49.4532
6700 1 1.40954 -0.0275053 51.5063
2766 1 4.04421 1.14657 48.4649
4131 1 5.70646 0.547335 50.2464
7185 1 7.38164 2.24706 50.7092
4478 1 6.68649 1.71248 48.2068
74 1 8.67061 35.6099 52.023
69 1 9.06372 35.2062 35.7805
4951 1 8.35573 0.210559 49.6833
3162 1 8.82608 2.75451 48.4792
2625 1 9.30424 1.43192 51.843
1640 1 11.1181 35.6634 50.9464
7746 1 10.6039 1.39818 49.7658
3966 1 11.528 1.52552 52.0588
3026 1 13.233 -0.275382 52.0133
4612 1 13.5351 2.50974 51.2693
1014 1 15.6856 1.09349 50.9381
546 1 14.752 1.94144 53.2646
144 1 12.0799 4.08888 52.6138
1786 1 28.3309 9.62301 35.6527
5386 1 18.2358 12.5074 35.7225
3322 1 18.0134 0.355069 48.8708
6539 1 19.7693 -0.448354 50.1931
4460 1 17.2629 2.43715 52.598
3399 1 15.7257 24.4802 36.1439
1903 1 20.0359 1.5085 48.8109
4953 1 21.7442 2.48702 52.3781
5245 1 20.0945 2.86644 50.7927
2712 1 21.6947 4.01956 49.3978
3971 1 20.1691 0.790078 52.0954
7965 1 25.4203 0.852841 49.823
3102 1 21.8962 0.521691 50.6029
3744 1 29.4292 35.7178 50.7855
2854 1 25.4825 4.78505 53.139
7646 1 23.6002 2.65941 50.5875
4384 1 24.3202 0.279536 51.814
7811 1 26.1419 0.316936 47.1423
6462 1 25.7812 2.1477 51.7447
3421 1 27.0796 -0.101852 51.8584
6386 1 27.4218 4.5425 49.3836
3255 1 27.5907 4.28026 51.8457
5742 1 30.7213 35.9711 48.7744
956 1 31.6721 1.92226 53.0725
66 1 29.3931 1.08979 51.6747
4200 1 31.8177 -0.0754425 51.2083
2119 1 30.7819 2.76755 50.487
2060 1 27.7931 2.29347 50.2162
122 1 26.0139 6.13197 51.4155
3574 1 35.2028 1.2818 51.4456
4320 1 34.7616 1.87302 49.1919
3099 1 33.444 0.170808 52.6295
4111 1 33.0473 1.9084 50.9222
3319 1 35.4353 3.8736 49.5335
4310 1 34.6153 3.6897 52.7758
4311 1 30.682 -0.453797 53.503
6932 1 1.91291 4.4832 50.5275
1984 1 0.383443 4.56694 52.1476
2546 1 1.73859 6.71496 51.8843
6478 1 2.26515 7.2894 49.725
3895 1 0.145493 5.68341 49.9348
840 1 25.025 34.6535 50.7558
1884 1 26.1586 32.6542 49.1713
159 1 4.88553 2.52857 51.0809
4290 1 4.16944 5.38927 49.3541
4933 1 4.22257 7.20367 51.839
6693 1 3.82233 4.83886 51.7172
2136 1 6.49009 4.23655 51.6145
6924 1 6.41802 6.36366 50.5381
7425 1 8.25984 4.40166 50.0151
6876 1 9.92522 3.2117 53.2471
2277 1 10.143 4.22349 50.7131
3037 1 7.46649 6.54513 53.5852
7984 1 11.1845 6.16708 52.068
3977 1 8.53667 5.134 52.3417
4999 1 10.9483 6.15157 49.8805
6475 1 13.3903 5.14847 48.1775
4070 1 12.9341 4.78449 50.6242
4555 1 13.443 5.76813 53.0642
3004 1 9.20683 34.2275 50.2212
7237 1 13.526 7.03739 51.2577
55 1 14.9651 4.18828 52.4239
550 1 15.6179 6.42464 52.8559
6459 1 16.8844 4.22097 51.1352
5015 1 15.5582 8.50189 51.649
2618 1 6.76654 21.5671 53.0498
7998 1 17.4981 6.79444 51.8324
4875 1 19.1303 4.92247 51.4496
7669 1 23.3278 5.64051 49.9935
1334 1 23.3611 4.59741 51.956
5331 1 21.2704 5.97028 51.181
6444 1 19.4579 8.12185 50.4003
632 1 19.6749 7.17016 53.3394
7496 1 28.4089 34.0263 51.4995
2467 1 1.99989 17.5186 53.4481
4239 1 33.2033 11.4375 52.144
4917 1 25.4768 4.20749 50.5906
6542 1 27.0916 7.37692 49.6233
3749 1 23.4137 6.8366 52.3665
2947 1 7.80294 2.24729 53.7727
783 1 29.6605 7.83885 49.9338
68 1 31.5154 6.84365 51.33
4856 1 29.9742 4.96702 50.4021
1028 1 29.5523 6.11647 52.4894
3714 1 31.3336 4.52447 52.2605
3500 1 32.5964 6.33984 53.2577
7280 1 33.4117 4.97205 51.0315
8000 1 35.1272 6.28219 51.6843
1238 1 1.78649 8.66775 53.7167
5088 1 0.512154 10.5799 52.6547
1262 1 1.40561 9.00961 50.9879
1245 1 2.5815 11.0653 53.6319
6552 1 2.46999 11.3695 51.1026
4796 1 35.968 12.0649 51.3665
3976 1 19.4461 2.54992 53.4378
6350 1 6.30886 8.62206 51.1794
4795 1 4.0803 9.36179 50.8565
954 1 6.31561 11.1963 53.2786
1022 1 22.8119 5.65771 36.011
5114 1 8.87307 6.82959 50.8037
4065 1 8.74379 11.2075 53.0101
6796 1 9.76596 7.78495 53.3536
6686 1 8.53096 10.7949 49.1472
6217 1 10.276 11.5527 51.0163
5505 1 8.65487 9.39858 51.5317
3398 1 10.7462 32.4719 50.8156
868 1 12.3049 8.0662 52.7908
6080 1 10.6302 8.54743 50.5921
2304 1 13.23 9.49874 51.0069
7486 1 12.3187 12.1871 52.0256
4711 1 15.9504 10.3893 49.0128
946 1 7.89326 32.2297 51.68
3569 1 18.2784 9.29275 52.5418
5500 1 20.9456 9.58087 53.1204
2360 1 23.4306 9.86258 49.5515
532 1 20.3668 10.404 50.9641
3740 1 0.776882 34.987 53.1965
5600 1 22.673 10.5035 51.7518
5349 1 22.0261 8.2071 50.3255
4751 1 31.5541 28.3184 35.7486
837 1 24.6971 7.6843 50.3174
3340 1 25.8994 8.33656 52.1522
3015 1 25.357 10.2497 50.7188
3672 1 23.9668 9.03604 53.3795
621 1 7.16319 34.0581 52.84
701 1 26.9622 10.7291 52.9716
5086 1 27.8988 8.70848 53.0697
3263 1 27.6914 9.41894 50.9138
5279 1 28.253 11.52 51.1319
6702 1 29.9432 8.97768 51.9079
7569 1 31.0037 11.0851 51.3065
6460 1 36.0037 8.42423 50.3004
6791 1 32.5168 9.1187 52.6339
1174 1 -0.199438 8.07761 52.6531
1988 1 33.6276 7.92079 50.857
4719 1 34.9718 9.78541 52.2887
4 1 31.6184 9.28567 50.3197
7429 1 1.18692 12.8285 49.6386
6367 1 1.35017 13.2017 52.1295
5504 1 36.0993 14.6368 53.1756
5320 1 -0.336713 14.9197 48.3416
1728 1 -0.177254 14.5721 50.8469
4716 1 26.2782 32.717 51.5859
1421 1 27.4549 2.05453 53.0809
4286 1 3.99344 15.5675 50.0181
1012 1 5.25406 35.406 52.2755
6397 1 6.902 10.9172 50.7106
3186 1 4.39582 11.5925 52.0684
2595 1 17.3714 33.3107 36.1513
4509 1 5.56893 14.0581 51.9455
1407 1 4.67945 15.738 53.5066
6215 1 8.19535 14.8683 51.4089
2685 1 6.24442 15.4927 49.7229
5493 1 7.77115 13.016 52.486
3262 1 10.3487 13.9998 51.018
2303 1 2.40818 24.4436 53.4032
3316 1 10.5558 16.225 51.759
2778 1 10.229 15.65 49.2606
3111 1 12.5777 13.4105 49.5888
6934 1 13.9564 11.3539 49.9627
1005 1 12.178 14.1435 53.1868
1105 1 13.3089 15.9501 52.5688
5435 1 14.6574 12.6302 52.2702
1879 1 16.3698 15.8611 49.238
2353 1 16.964 12.6654 53.2705
4776 1 16.2207 10.5845 51.6842
709 1 14.5945 14.5195 50.5477
6952 1 15.8146 15.0077 52.7792
7117 1 17.4643 14.0238 51.3175
6769 1 17.4801 16.2344 51.6258
4457 1 21.759 14.3405 51.0887
1319 1 20.9538 15.1808 53.3385
1243 1 20.3958 12.2922 52.3081
4706 1 22.3941 12.9292 53.0723
7030 1 23.2521 15.1715 52.644
7890 1 23.8113 12.6292 51.3262
2528 1 6.64173 34.8318 50.6337
3326 1 24.9943 12.0518 53.489
204 1 25.049 12.0067 48.5366
7891 1 26.4043 12.4709 50.8535
1017 1 25.5941 15.7198 50.9196
3666 1 25.5327 14.3293 52.7719
2549 1 27.2718 10.9851 48.7792
7675 1 27.6965 14.4054 50.228
4374 1 29.8278 13.4511 52.3565
4052 1 27.7024 13.1117 53.2526
4599 1 32.2031 12.6312 49.9319
5903 1 29.0879 15.5115 48.3239
611 1 29.1837 11.4239 53.6217
5168 1 28.1132 34.3502 49.1586
7432 1 34.0633 10.7028 50.0181
4929 1 32.118 13.8481 52.149
5417 1 32.31 15.1877 50.237
1668 1 34.3092 13.5569 51.3066
1963 1 33.8927 13.4541 53.6863
7655 1 1.60485 15.1606 49.8255
2041 1 4.68464 20.1421 50.984
5413 1 1.04727 17.0969 51.1183
4045 1 1.09649 18.854 49.833
4229 1 2.67375 19.3403 51.8752
2236 1 2.65527 15.5669 52.2683
2137 1 4.08411 17.2632 51.6758
2772 1 6.37412 16.7052 51.7108
226 1 8.79293 19.6642 52.8239
6235 1 6.59556 19.0598 51.9977
5273 1 5.87862 1.04044 52.5205
7595 1 8.03924 21.519 50.8262
1173 1 11.8191 19.528 47.6771
6384 1 8.42461 17.0159 52.6941
3179 1 10.906 18.2694 53.0148
5257 1 9.69494 19.7826 50.6035
6799 1 10.601 17.7737 49.7455
2861 1 13.2396 17.9957 49.0233
1026 1 14.577 16.9772 50.7192
617 1 14.2542 19.3855 51.5689
6794 1 12.561 17.8925 51.1741
1349 1 16.3621 18.4596 50.6824
7719 1 17.6208 18.8401 48.7228
6752 1 15.2469 17.6184 53.0145
6480 1 16.3798 20.8022 51.3975
5675 1 25.3804 19.0574 53.2753
450 1 14.7812 20.428 53.5809
6464 1 19.6013 15.4583 51.0979
5496 1 20.367 19.0293 49.782
6292 1 21.3622 16.4031 49.6421
7424 1 20.4362 19.9179 52.6907
7497 1 19.2307 17.8977 51.5475
2635 1 21.4094 17.3517 51.868
3187 1 25.9628 34.7524 52.8542
3565 1 23.0597 18.5971 52.7381
635 1 25.5079 17.6074 49.5149
2532 1 25.1207 19.7487 48.7559
6763 1 23.5756 17.1075 50.9738
7114 1 22.9091 18.8036 49.7027
2045 1 26.8369 16.7546 53.3846
7659 1 27.972 16.8022 50.4559
2765 1 24.6221 19.3663 51.1496
3905 1 30.5694 17.7971 49.815
559 1 27.9549 15.2531 52.4177
1025 1 26.5204 18.2431 51.5943
2790 1 28.3347 19.3393 50.2828
72 1 19.3093 33.9657 51.2071
6917 1 29.5496 18.2043 52.1253
4705 1 36.0739 17.5561 53.432
6361 1 32.8736 17.6136 50.7734
1153 1 31.0118 15.7915 52.7582
1954 1 35.4353 18.2266 50.8896
720 1 34.687 15.9128 50.2507
5251 1 33.2805 20.1261 50.3653
5750 1 33.5484 16.1411 52.5238
124 1 -0.218854 22.0216 49.0969
4386 1 1.91915 21.7202 53.0877
2937 1 1.2735 21.1781 51.1199
1023 1 -0.446896 22.3602 53.1414
1438 1 0.202716 19.5429 52.6703
396 1 4.6384 21.4889 53.3664
6550 1 6.89232 19.8197 49.3873
4833 1 3.51553 22.4759 51.622
382 1 5.60297 22.2657 51.124
2603 1 5.69005 24.5963 51.0732
3648 1 4.62831 23.5752 53.1721
3967 1 10.3152 21.4572 52.8669
6394 1 10.7943 21.2585 49.2446
4209 1 7.49331 23.6195 52.0575
514 1 12.1551 22.6998 50.6378
7832 1 12.1553 25.3277 48.4514
1412 1 9.72644 23.5881 51.2458
6718 1 15.7614 -0.548685 52.7164
5172 1 12.0443 20.4202 52.0145
2197 1 13.8651 23.9834 49.0785
2140 1 13.2194 20.8881 49.2699
4960 1 11.9355 24.8258 51.0745
7005 1 14.1198 21.7486 51.6528
2066 1 27.235 6.19819 53.8456
6377 1 17.9378 21.4438 49.7934
3509 1 15.4517 22.3908 49.6496
6390 1 18.7127 19.9534 51.0282
5733 1 16.572 22.9683 52.3699
557 1 19.297 21.9025 52.5058
2118 1 17.5236 23.7114 49.498
7187 1 18.269 24.9082 51.2997
370 1 20.88 21.3451 50.367
1325 1 21.6835 20.564 48.156
444 1 22.3223 20.1256 51.6685
952 1 22.2715 23.4685 49.8091
1359 1 20.3776 24.1814 50.9007
7086 1 23.5416 21.17 49.6853
6400 1 26.4862 21.4818 50.654
1806 1 25.0018 23.0854 49.6562
2220 1 26.1334 21.6826 53.1653
2763 1 24.3287 22.1635 51.7699
1752 1 22.1227 22.624 52.4885
67 1 17.6099 18.6156 53.078
3086 1 26.7148 24.1256 53.7688
3414 1 28.9055 21.8308 50.3809
5081 1 30.5861 20.2476 50.4651
1816 1 28.1066 20.4409 52.8724
1664 1 21.599 33.8973 49.9322
1989 1 30.6088 21.7817 52.6613
3012 1 23.592 35.9758 49.29
3249 1 33.813 18.4139 52.8897
2997 1 33.7057 22.1576 49.468
438 1 31.845 19.4793 52.1893
4446 1 35.3763 20.5796 51.1381
2153 1 33.4839 21.6874 52.2396
2463 1 -0.00397224 24.4586 49.3203
6619 1 3.52114 24.4016 50.2723
2214 1 1.34149 26.9376 52.4746
7087 1 0.108252 24.719 52.5637
6685 1 1.44017 23.5825 50.9803
5594 1 35.8868 28.3511 52.7029
1904 1 3.98821 26.0396 52.3713
4700 1 6.46667 23.1135 49.2521
1034 1 6.4593 25.4958 53.0166
5796 1 6.30767 27.0093 51.2193
1829 1 7.88381 25.1194 50.0966
7826 1 22.1678 35.3337 51.7911
296 1 7.22641 27.6893 53.2144
5577 1 8.88882 25.9843 51.9779
6833 1 10.1947 23.4806 48.8151
2129 1 11.8224 26.7065 52.4502
3970 1 9.79663 28.1733 53.2652
4066 1 10.2578 25.9888 50.0008
3005 1 15.2327 33.3325 49.9907
4531 1 14.4799 34.2714 52.5757
2318 1 14.1723 24.3369 51.5464
4787 1 15.8552 25.1698 50.3592
1571 1 13.9142 26.9273 52.4828
3229 1 15.0519 28.224 49.8609
5892 1 15.6752 28.5826 52.3282
5984 1 13.1443 18.3485 53.7669
2711 1 19.546 25.9133 53.3696
4391 1 17.5497 29.8223 50.7729
4392 1 18.6206 27.9499 52.7677
6226 1 17.0719 27.1592 51.1039
3801 1 19.869 26.8373 50.9599
6042 1 21.9891 27.0933 50.2776
3999 1 21.7669 25.3115 52.2863
455 1 23.6718 27.1552 51.9045
5024 1 25.4763 28.7185 52.3486
137 1 21.0702 27.9245 52.7648
6709 1 22.9326 29.5149 51.2784
1661 1 23.5582 25.4535 49.7929
3564 1 23.9891 24.5809 51.8047
3629 1 32.2883 13.8125 35.869
5117 1 27.4408 27.6989 51.0725
71 1 26.0453 26.2706 52.4344
7728 1 24.7674 27.7401 49.8587
6472 1 32.5926 24.0069 52.5838
6795 1 28.4821 23.1868 52.1482
3983 1 26.2774 23.8739 51.5753
7407 1 30.3918 24.732 51.6917
6001 1 29.9975 23.6932 49.7449
7348 1 6.34823 31.2966 53.145
3756 1 27.7775 25.364 50.7335
4160 1 27.7293 27.829 53.3411
7184 1 12.4045 32.1189 52.2096
3583 1 32.4655 27.1331 49.8909
4766 1 34.8874 23.4922 51.344
2225 1 32.5085 26.5119 52.3039
4541 1 34.7889 25.5972 52.7809
3642 1 1.09407 28.5783 50.703
4837 1 3.32331 27.7787 50.9491
7106 1 0.00962477 32.2216 53.4391
681 1 2.13877 30.2188 49.5644
7488 1 1.53581 30.759 51.9883
5317 1 35.8543 30.9171 51.2014
7252 1 0.624765 31.852 49.7958
1821 1 12.802 34.2877 51.0622
5185 1 14.0235 10.1975 53.3871
2293 1 8.21457 27.3778 49.95
7982 1 3.84818 30.9445 51.3552
274 1 5.6493 32.6235 49.2104
781 1 5.03987 29.1512 52.5858
1511 1 20.4333 35.6185 53.4606
4639 1 18.503 32.7908 53.0653
7490 1 13.022 28.4371 50.7197
2637 1 7.85707 29.546 51.8735
5187 1 10.652 28.3449 50.6107
3585 1 10.1113 30.3236 51.8842
4395 1 17.8593 -0.0218144 51.7851
1802 1 6.11631 31.1111 50.7301
4361 1 12.2265 29.3967 53.2192
4142 1 11.94 30.4432 50.204
3268 1 13.9976 30.2688 51.7211
3081 1 15.7991 30.927 49.9105
4456 1 12.1201 0.778355 35.7699
3040 1 13.2939 31.9649 49.7812
7438 1 20.5854 31.8647 51.0626
3997 1 15.2885 31.9719 52.2775
4315 1 17.9515 32.2402 50.6308
1515 1 24.1509 2.77297 53.6501
1787 1 18.908 30.2938 52.4587
538 1 16.6861 34.1906 51.9106
5793 1 18.0566 35.1442 53.3843
6759 1 21.7029 33.1129 52.5254
5348 1 21.2359 30.2379 52.6231
2373 1 23.4703 30.6111 53.4823
3095 1 23.7359 32.6566 50.615
3844 1 24.3054 32.8388 53.0378
782 1 31.8931 12.1029 53.8818
2450 1 24.9256 30.837 51.374
7654 1 27.1907 30.4176 51.7242
5656 1 26.29 29.3824 49.5655
859 1 28.8591 30.1808 50.2412
4041 1 28.0295 32.1496 50.0671
6380 1 7.29844 9.29191 53.7167
5581 1 29.822 27.4731 52.2063
1951 1 30.7539 29.0751 50.5525
3657 1 30.1843 29.7196 53.0134
7564 1 31.4911 31.5365 51.8566
7178 1 31.9972 28.6676 52.3198
7749 1 35.299 32.9373 51.8753
6231 1 16.2731 25.9705 52.7627
306 1 34.3411 28.0838 51.1501
3495 1 33.7059 29.8976 52.1842
446 1 10.5965 12.6041 53.4908
6445 1 20.0706 17.4566 53.8036
6297 1 2.85891 32.954 50.2107
1657 1 2.99089 35.1132 52.7013
6520 1 2.51566 32.9394 52.9623
947 1 0.918696 33.7399 51.2509
5490 1 1.749 34.7684 49.0495
3397 1 3.73656 35.026 50.2308
7351 1 4.83245 33.1412 51.9631
5906 1 32.7397 34.3626 53.328
5193 1 0.435311 2.41244 52.6842
7582 1 33.8444 27.8037 53.5671
56 1 9.39257 24.1696 53.2423
231 1 3.49781 13.6444 53.3833
7581 1 18.4467 15.2462 53.4215
2474 1 35.6934 11.8558 53.9074
6373 1 2.88385 28.9121 53.1011
1970 1 28.5448 25.5527 52.7643
2478 1 4.83323 8.94546 53.3385
2217 1 20.4909 5.0627 53.2669
6605 1 25.8125 0.464791 53.7649
4465 1 24.4278 23.1218 53.899
6543 1 5.15474 5.48441 53.6356
3097 1 13.5112 25.2026 53.8568
1507 1 6.83256 15.1306 53.7662
4554 1 26.0619 30.6978 53.6836
2377 1 4.91654 3.15122 53.3322
2302 1 4.35154 19.18 53.3641
5091 1 2.19517 4.99795 53.5316
4623 1 30.8932 25.8709 53.7744
614 1 10.4098 0.0824652 53.5319
5424 1 3.27535 7.09979 53.6712
1320 1 18.0977 4.55984 53.5307
3806 1 28.3174 30.4365 53.8966
6474 1 0.0339715 6.36766 53.9075
4218 1 23.0653 28.2983 53.8133
7326 1 1.86072 0.216925 53.7727
4698 1 3.76227 31.2644 53.9047
4945 1 2.58814 4.92188 35.5743
6277 1 35.3128 6.16277 35.6562
127 1 25.7982 20.8541 35.6931
7088 1 11.1479 2.8472 35.7232
3718 1 35.4332 10.2927 35.8479
7328 1 35.2996 13.9518 35.63
1350 1 26.4337 13.7556 35.64
2626 1 14.8333 15.6101 35.9681
7241 1 26.3668 11.1095 35.9517
690 1 20.5662 24.0327 54.525
7113 1 1.24997 3.25619 56.8893
6160 1 2.09698 -0.0202712 56.3766
2131 1 2.24206 2.89356 54.5791
7167 1 0.0438221 1.9154 58.5138
5765 1 34.0728 35.8698 71.709
2794 1 5.4753 2.93294 57.9373
6224 1 3.83016 1.31038 56.9663
707 1 6.18033 -0.495171 56.7015
1240 1 8.49246 0.582518 55.8604
3830 1 5.85599 1.67819 55.6646
3588 1 14.0365 28.2561 54.5119
2800 1 9.73388 0.0181764 57.7597
931 1 11.4548 35.2053 58.0881
5678 1 7.62773 2.98154 56.5959
5509 1 4.92457 27.2337 54.2743
1186 1 11.2082 1.40315 56.34
6696 1 9.62338 3.20889 55.4701
7887 1 11.0665 35.6138 55.6752
7491 1 30.2417 31.5822 54.4156
6869 1 13.0824 -0.245953 56.7729
5183 1 13.4958 2.27405 56.6384
5502 1 14.6905 0.73642 58.1493
5597 1 15.0076 0.754643 55.355
472 1 11.8615 3.51553 57.172
6198 1 16.1229 4.7618 58.4553
7679 1 12.7192 0.31268 54.3436
147 1 12.3523 1.06387 58.6775
5180 1 19.1279 -0.345704 55.3103
6199 1 16.9115 2.0759 59.1539
2464 1 15.8182 2.28124 56.8647
630 1 18.3145 2.42524 55.5647
2460 1 19.6303 1.73933 58.7336
693 1 20.9102 3.72098 58.0085
2065 1 21.4456 3.18294 54.4104
3998 1 24.0376 4.34246 55.6726
4703 1 20.752 1.28726 55.1201
4372 1 24.4817 0.192477 55.6837
7355 1 23.0668 2.0715 55.9844
4635 1 21.5343 0.353309 57.3535
3437 1 25.3498 2.6171 56.1267
6072 1 8.0803 32.5831 54.3747
3590 1 33.4923 32.4024 67.866
7018 1 27.1148 0.590842 55.7723
359 1 16.8703 27.8276 54.4655
1911 1 26.7701 2.34673 57.9691
1102 1 27.8629 2.77025 55.4052
4926 1 30.5419 3.29546 55.4122
6682 1 29.2854 1.20797 54.291
6637 1 29.1936 2.01769 57.1966
1088 1 35.4207 1.17397 56.9307
6393 1 35.0023 2.32912 54.4243
3518 1 31.6583 1.14704 55.0882
4067 1 32.8941 2.64578 55.8132
4770 1 31.6481 2.16769 57.927
688 1 33.0665 0.154953 57.2985
1118 1 3.526 3.74222 56.2746
7102 1 24.8535 7.00023 54.5361
1327 1 1.57303 5.55183 55.8102
378 1 0.434403 7.23559 58.1236
4376 1 3.35835 3.47518 58.593
6949 1 31.5286 27.9621 54.6649
299 1 7.67655 6.84496 57.6138
5409 1 3.86985 5.8997 55.7319
1013 1 28.4363 22.1497 54.536
4073 1 6.10266 5.19271 56.5983
7961 1 6.0471 7.34292 55.0231
2704 1 8.70523 5.0696 56.5612
65 1 11.5163 4.52909 55.1777
379 1 11.2012 5.7104 57.2689
4781 1 10.0699 7.59688 56.872
3754 1 23.5435 13.7975 54.8815
2780 1 11.4292 2.25321 54.2852
5642 1 13.3004 6.38895 55.5891
3334 1 14.0787 4.71226 57.2192
858 1 12.7681 8.1007 57.1898
1971 1 13.4744 3.75718 54.3593
5897 1 18.3602 5.72571 58.4561
2226 1 17.1516 4.76979 56.4491
7193 1 19.6764 4.50337 55.7735
6768 1 15.422 5.09022 54.8441
708 1 18.116 6.93693 56.5502
694 1 20.5511 6.67863 58.1399
5764 1 35.9451 35.7716 70.1404
920 1 20.3615 6.60488 55.72
3100 1 23.1569 7.44376 58.7482
7596 1 22.199 5.56517 56.5711
5111 1 24.3661 5.62211 58.4187
4773 1 22.875 5.30782 54.0658
3324 1 22.0114 8.00656 56.8818
4950 1 24.0937 6.97637 56.6081
3183 1 26.3335 5.22405 56.0565
5323 1 26.7049 4.89147 58.414
7915 1 17.5048 32.5781 55.3661
1977 1 23.4916 3.54535 57.8816
4076 1 28.0696 6.49314 57.7571
3352 1 28.6455 4.67102 54.0173
7677 1 30.9232 4.31932 57.546
3567 1 28.8598 4.37707 56.4832
7506 1 31.2421 6.5208 57.121
240 1 30.8557 5.56276 54.5199
1104 1 34.7064 3.73379 56.5336
1261 1 -0.593498 5.74831 56.7238
3722 1 35.5313 3.81437 59.0548
2046 1 34.504 5.55925 54.3274
6997 1 8.91868 30.3032 54.1574
2130 1 33.6573 6.21211 56.8782
6132 1 33.3537 4.66144 58.5338
3811 1 2.55957 10.3141 55.6963
6522 1 1.13324 7.74786 55.6887
5166 1 0.261276 9.4991 57.039
6383 1 3.93812 8.43947 55.9124
3270 1 1.76281 11.1109 58.1032
6627 1 36.0448 9.72001 54.6669
2471 1 6.29957 9.28339 56.6401
2374 1 4.17488 10.3968 57.59
719 1 7.2857 11.148 55.5967
7124 1 4.84101 11.0116 55.1937
5018 1 8.63798 10.2666 57.2665
5645 1 8.01728 8.158 55.4691
3112 1 10.7734 11.5257 56.4186
2864 1 11.339 7.44089 54.9723
41 1 9.43764 9.86092 54.7678
4915 1 11.0827 9.64027 57.5039
1889 1 15.4273 7.06422 56.3079
3391 1 13.111 9.19553 59.4456
1482 1 14.4879 9.48021 55.8898
6712 1 12.0714 9.75017 54.9083
1483 1 13.0799 10.5916 57.2437
4552 1 15.1276 9.07939 58.5364
3409 1 28.6755 17.9203 54.2103
4303 1 17.2789 7.90865 58.5885
1986 1 16.9465 9.83772 56.6785
1109 1 18.9066 11.2362 57.1797
4937 1 17.4522 11.0629 59.1138
4454 1 18.4113 8.84487 55.1729
2383 1 24.2042 9.44692 58.8592
5970 1 22.1656 10.6404 57.6666
4060 1 19.6059 8.70182 57.3702
1355 1 21.0347 10.1636 55.6633
5113 1 20.8791 12.8222 58.6273
1002 1 22.8677 10.6697 54.3647
3197 1 25.9857 7.84068 57.8267
4140 1 28.2714 9.0562 57.6636
7115 1 24.0397 9.37188 56.3273
5901 1 26.9572 7.83649 55.6921
7912 1 25.9416 10.2128 57.1062
6066 1 24.4406 11.878 58.3216
3333 1 28.8533 6.79005 55.653
5955 1 30.4035 8.74549 57.0553
5260 1 29.704 7.8261 59.4496
625 1 28.2078 9.81512 55.3101
6482 1 35.6461 33.8921 71.8896
2793 1 2.29103 15.1339 54.6725
7991 1 32.8821 8.39418 57.6895
2144 1 32.1803 7.78499 55.5991
4523 1 35.2237 8.11458 56.4898
1420 1 33.4075 10.4471 54.2668
798 1 34.5971 10.8842 56.5932
2228 1 33.5552 10.5078 58.8023
2233 1 32.2736 10.6721 56.8512
1831 1 35.2416 8.763 58.6438
5430 1 35.8573 11.2051 58.3197
704 1 1.28179 12.928 54.3358
2069 1 0.272999 11.7617 56.2438
3163 1 1.85366 13.9941 56.8147
4047 1 3.22023 12.749 55.4714
4075 1 -0.455804 13.6626 57.5595
2875 1 15.0066 11.9212 54.6573
132 1 -0.109518 14.9178 55.422
59 1 5.88519 15.6683 57.9899
123 1 4.30299 14.8728 55.7171
6063 1 4.11063 13.0184 57.6511
5575 1 6.48567 11.5349 57.9345
7255 1 8.65141 14.9532 56.7815
6958 1 6.6851 16.3936 55.9806
4860 1 6.23994 13.8787 56.712
3985 1 7.20805 14.0013 58.7256
5342 1 8.6512 12.6426 57.1887
1276 1 10.8755 16.5254 57.5194
5486 1 27.8025 35.7304 54.0747
5993 1 11.074 13.8198 55.494
5253 1 13.705 12.8886 56.8271
462 1 12.6254 12.1231 54.6621
4127 1 14.1076 14.4368 54.6303
6058 1 15.3596 11.2511 57.135
7195 1 11.3683 13.8238 58.1283
1893 1 17.6015 11.8541 55.4069
6201 1 7.57476 4.32028 54.6266
4693 1 16.4023 13.991 55.5174
7819 1 19.0602 13.377 54.4991
4401 1 19.0381 13.5485 57.2124
5503 1 18.5903 15.7004 55.6537
6635 1 15.2422 15.0858 59.2028
4553 1 23.1384 13.61 59.6033
7116 1 19.2172 15.7139 58.6267
3962 1 21.652 12.3501 55.534
7758 1 20.6868 15.0899 55.3721
6857 1 23.2347 16.2185 56.3848
3494 1 22.3736 13.8143 57.1353
6622 1 26.2506 14.227 54.9903
3498 1 24.3531 11.6356 55.8925
2621 1 24.5363 14.821 57.4969
5027 1 26.0543 13.188 57.2784
1277 1 26.7888 11.6267 55.1471
4701 1 24.6876 16.4658 54.7728
5739 1 27.9956 11.514 57.4747
793 1 28.3517 13.9046 56.2073
6681 1 31.9421 12.8473 55.9934
4800 1 29.717 11.6486 55.7515
5418 1 30.0821 13.7974 54.6065
865 1 33.7478 12.6907 58.31
7341 1 34.1811 13.8323 56.46
3733 1 33.5198 16.04 56.6818
5818 1 31.9277 15.6766 54.9851
3915 1 24.1071 26.0913 53.9424
3355 1 1.8022 16.37 56.8231
1077 1 2.68315 18.426 56.7089
6463 1 0.498246 17.8114 58.7763
1760 1 2.3263 19.7275 54.5393
7345 1 22.4673 16.5992 54.199
1188 1 3.70587 17.4443 54.8571
1021 1 5.10352 18.3413 56.5974
3503 1 4.04217 16.6172 57.2598
139 1 19.6532 34.0409 54.9726
2936 1 8.43673 16.9488 58.1125
292 1 7.85035 18.8326 56.2562
4048 1 11.9075 18.0783 55.9069
598 1 9.62908 17.0732 55.6131
3416 1 10.3504 19.6741 54.8496
1357 1 9.93864 18.8026 57.066
6307 1 11.0634 15.495 60.6445
6850 1 11.4885 16.1544 54.388
1179 1 34.3124 22.9283 54.1652
7962 1 13.9065 18.4608 56.9197
1183 1 14.5221 15.1402 56.8318
7435 1 12.4382 15.455 56.248
2465 1 15.9306 19.4974 58.486
6471 1 23.658 20.9397 54.2062
5899 1 14.0744 16.8965 55.0609
4779 1 16.4927 16.5206 54.8447
1584 1 15.6655 18.6865 55.1209
3591 1 16.0996 17.0412 57.0142
387 1 18.2131 18.0726 55.6338
3174 1 18.8881 17.8955 57.6722
3029 1 18.2192 20.5002 58.6789
7986 1 32.241 21.4314 54.4895
1980 1 20.841 17.5568 55.8802
5740 1 19.7245 20.3426 56.98
3188 1 21.7526 19.2831 54.5379
1992 1 22.6273 17.9532 57.5955
2324 1 17.4587 26.3594 72.0997
1492 1 -0.301974 4.13643 54.9057
2241 1 26.6538 17.53 55.586
1268 1 24.8365 17.3616 58.0116
2540 1 24.3879 19.3721 56.2882
6713 1 25.0623 15.3017 59.958
4858 1 27.2443 17.5411 58.1814
6536 1 28.6604 15.5994 55.0355
1745 1 26.8687 15.5729 57.2174
7983 1 32.3871 16.6312 58.8458
3264 1 30.6903 18.7063 58.5817
2072 1 29.6614 15.4826 57.1454
5518 1 28.909 18.988 56.3637
7801 1 30.1704 19.7945 54.1094
1042 1 10.6419 4.24341 71.8106
2438 1 0.574698 17.8076 55.406
3103 1 30.8563 17.3165 56.4995
1251 1 35.943 16.472 57.1922
3593 1 34.5322 15.6198 54.5947
548 1 34.531 18.4193 55.3189
4156 1 4.12957 20.4078 56.1785
6923 1 1.35444 22.1334 56.7924
2604 1 2.72262 22.4749 55.019
5797 1 0.439486 24.8724 56.894
4965 1 30.1088 35.4926 71.9029
3115 1 0.446923 23.4631 54.9406
7823 1 2.25667 20.3077 58.5303
4920 1 5.95932 20.1133 57.5783
692 1 3.53729 22.2901 57.6892
6156 1 5.30151 22.5297 55.7204
3425 1 6.27373 20.4785 54.8636
7727 1 3.99066 1.26342 54.2229
6213 1 8.13826 22.376 58.8296
4850 1 7.65236 21.9995 56.5447
1 1 7.93334 27.8598 71.689
1998 1 10.213 22.3983 55.4542
5511 1 9.70226 21.0091 57.5618
5013 1 11.1158 24.2508 57.4464
6052 1 12.3556 21.0156 54.4785
5900 1 11.8977 20.3556 56.9782
5663 1 11.9414 22.0273 58.9173
4141 1 14.3855 20.6718 55.8129
7121 1 12.3764 22.4851 56.3463
4217 1 14.6764 23.104 56.6672
3165 1 14.7423 22.5104 54.3673
7814 1 5.45115 13.1485 54.3109
6562 1 33.5722 33.6075 70.0584
2798 1 16.6547 22.6344 55.7795
7974 1 19.0171 22.258 55.1901
1585 1 19.1988 24.3996 56.2755
5674 1 17.0313 20.3487 56.2972
534 1 15.997 21.8666 58.1636
5522 1 30.4297 24.4168 71.764
2620 1 22.2086 20.1222 56.6356
4783 1 21.5601 21.7235 54.7245
7970 1 21.0836 22.5139 57.1687
2877 1 22.6105 24.3811 55.0883
7103 1 18.6269 22.7431 58.0623
4547 1 26.94 19.7173 54.6487
4721 1 25.1567 22.7474 71.6558
4602 1 25.9249 21.703 55.2781
3664 1 26.1953 20.1351 57.5911
855 1 23.4188 22.4127 55.9768
4614 1 25.1159 23.2221 57.8609
1578 1 31.1434 20.2234 56.7982
1007 1 28.7984 19.8533 58.467
1830 1 30.6425 22.528 56.145
227 1 28.467 21.012 56.5735
2853 1 32.0924 20.5077 58.7787
1665 1 30.1451 21.9552 58.6261
3965 1 12.6792 33.1503 54.4167
3675 1 32.9295 18.4684 57.608
7570 1 35.8098 19.3532 56.8521
2948 1 32.4775 19.1131 55.0666
6285 1 33.3644 21.0014 56.698
2437 1 0.174596 20.8667 54.9142
381 1 33.7045 22.5777 59.1984
3834 1 35.3445 21.9965 56.1441
4162 1 24.9863 0.736061 71.8265
2633 1 2.74092 27.3984 55.1137
5882 1 2.53713 26.2106 57.912
2921 1 0.976625 25.8596 54.6692
6720 1 -0.0860223 24.2561 59.2641
369 1 35.3156 26.572 57.1202
6551 1 2.6018 24.3409 56.0367
3580 1 7.62971 23.7008 54.6443
877 1 4.74402 26.694 56.576
4558 1 4.58225 29.5211 55.8344
5826 1 4.77619 24.9372 54.691
6053 1 6.43598 24.2492 56.5428
3354 1 6.85872 26.2086 55.312
2378 1 7.98645 26.3429 57.5146
6597 1 8.86154 24.485 56.5671
7507 1 8.80418 28.6222 58.0395
2451 1 11.2505 24.7398 54.8982
1176 1 9.06892 25.9262 54.4019
5735 1 8.7648 27.9087 55.2894
4238 1 11.339 27.2084 54.7443
309 1 10.3042 26.8599 56.8147
7023 1 13.2476 24.9091 56.0373
6863 1 13.3821 24.0928 58.4773
792 1 12.7803 27.5202 56.8192
788 1 14.9796 26.4978 56.1944
5102 1 14.9736 25.6482 58.3735
7108 1 8.631 21.1515 54.4077
1328 1 15.4898 24.5351 54.809
3107 1 16.6803 24.2399 57.6827
6716 1 17.4696 25.5924 55.5393
5176 1 17.5752 26.4378 57.8924
149 1 19.0368 27.637 55.3562
1726 1 20.8363 28.422 56.7612
2313 1 20.2316 26.4397 57.2383
1993 1 31.223 17.6571 53.9757
7339 1 20.9736 24.596 58.3497
2777 1 21.5005 26.3809 54.7372
6928 1 23.3405 24.3971 57.4227
2142 1 24.155 27.9118 59.1262
3715 1 22.9015 26.596 56.3779
305 1 25.2992 26.2561 57.5264
3351 1 24.7436 27.799 55.3302
4943 1 25.0843 24.6526 55.6189
7322 1 26.7687 26.292 55.1502
6375 1 27.6527 25.3301 58.3275
7587 1 26.9577 23.565 56.0022
5428 1 26.6476 27.6881 59.2906
5676 1 30.5645 23.3569 54.0789
1738 1 28.9511 23.7749 57.0844
7907 1 31.2735 27.529 56.8723
528 1 28.6699 24.8602 55.0236
6044 1 28.0161 27.092 57.1853
156 1 35.3478 25.2145 54.9746
3491 1 31.4745 24.8658 55.8582
2562 1 17.8051 0.786776 71.8863
6306 1 33.1329 25.6756 57.747
6454 1 33.3734 23.3848 56.191
1667 1 35.0407 24.198 57.5704
3359 1 31.8804 27.0738 59.5081
2476 1 1.57215 31.6642 54.9219
1832 1 3.18786 28.5045 57.7801
5159 1 0.00860436 30.4533 56.2914
6939 1 0.905522 27.7126 56.4305
7740 1 3.94124 31.6736 56.8334
1499 1 1.15542 29.1419 58.6924
7203 1 4.44479 28.0958 71.916
4307 1 2.40492 29.848 56.0976
6842 1 6.67605 29.0642 54.8318
2707 1 3.11824 30.677 58.8273
6073 1 5.25888 30.1781 58.2564
5974 1 6.49625 28.1575 57.3026
7112 1 8.30681 30.0116 56.4139
1759 1 7.78984 30.7311 58.807
4760 1 10.7672 29.062 56.1535
1744 1 9.89064 30.606 58.1352
7509 1 8.59612 32.7012 59.8903
4043 1 12.7217 29.9013 58.1882
5835 1 10.5315 27.8485 58.933
399 1 12.7568 30.2589 55.9804
7653 1 14.5703 28.1737 57.8681
4125 1 15.8866 30.2155 58.2293
7503 1 14.8944 32.6367 55.1421
5097 1 15.3223 29.9248 56.0981
2928 1 20.2289 31.5219 54.5699
3510 1 18.8865 29.0817 57.8737
1347 1 16.839 28.3834 56.8535
3963 1 18.2822 30.2666 55.2644
1593 1 20.56 30.7533 57.0753
1589 1 17.6779 30.9809 57.3034
2035 1 6.4655 17.9415 54.0736
7510 1 22.3368 31.0793 55.5638
1514 1 23.0075 29.3044 57.0411
601 1 24.6293 30.1362 55.3822
6317 1 23.1745 31.3889 58.052
5683 1 35.589 33.6786 67.9233
4071 1 26.9861 28.8172 55.1058
5426 1 25.4712 28.6753 57.4736
1273 1 27.4781 31.5073 58.7246
5325 1 26.4477 31.4181 56.0719
4469 1 27.659 29.6468 57.2181
7282 1 2.18231 33.6754 71.4624
6206 1 29.5449 29.5418 55.5898
7598 1 33.8662 28.1392 56.1495
3436 1 31.7084 30.8919 56.4344
2385 1 30.1281 29.2837 58.1425
5479 1 32.6928 28.8649 58.0383
5442 1 28.5451 22.8025 71.9107
7753 1 35.8966 27.4869 54.9292
3520 1 34.1123 30.247 56.5912
2124 1 35.6955 29.0582 57.624
628 1 35.8485 32.8126 57.5209
4851 1 34.7141 32.0273 55.7347
3282 1 21.1936 33.6198 72.1558
7172 1 1.37166 31.9216 57.624
143 1 0.295604 1.54479 55.4255
1678 1 14.0387 30.7175 54.2389
7997 1 2.27608 34.192 55.0877
4876 1 0.77082 -0.377541 58.5037
6210 1 0.655302 29.2577 54.2939
5888 1 6.58529 -0.338477 54.3079
5752 1 4.88333 33.0946 54.2668
6548 1 6.14765 31.4593 55.5635
6606 1 1.51867 34.2 57.4964
5684 1 4.14637 33.9217 57.1339
4139 1 4.36022 36.006 54.7304
1906 1 8.74075 35.2405 54.4654
3482 1 10.7677 31.6062 56.2721
7263 1 8.82691 34.5909 56.8493
613 1 6.87107 34.0797 55.3165
2154 1 8.16329 32.4486 57.0407
128 1 10.1684 33.322 55.0123
3101 1 10.3534 33.1313 58.1129
4288 1 12.4695 33.4776 56.6802
1345 1 14.2669 31.8042 57.1655
641 1 13.6207 35.8925 59.842
3649 1 14.1137 34.6101 58.1348
6527 1 15.512 35.4379 56.6762
6959 1 17.2333 0.510654 56.6956
2687 1 17.91 34.7642 56.1882
2756 1 19.5757 -0.574085 57.5711
6611 1 18.0401 34.0387 58.5714
1363 1 12.0019 16.9088 71.674
3096 1 33.5514 35.7205 68.7125
1917 1 19.4014 32.9161 57.0835
5833 1 21.4444 35.8315 55.5991
4381 1 21.967 33.3848 57.1102
3750 1 23.384 35.1935 56.912
2871 1 34.724 20.5006 53.9126
4248 1 26.7177 2.27776 72.2186
6936 1 24.1287 33.217 55.7552
6775 1 23.5124 35.1084 54.0097
6518 1 27.9731 33.7954 56.3057
317 1 25.9601 35.1655 55.4743
58 1 25.3793 33.511 57.4247
5837 1 27.2618 34.5601 58.6745
1915 1 28.9212 31.4122 56.5331
706 1 9.74591 5.89084 54.8167
463 1 29.5184 35.8336 55.7966
3755 1 29.3862 33.7633 54.1906
4464 1 31.6422 35.5812 55.4506
1748 1 29.5771 34.4084 58.073
316 1 30.528 33.3598 56.3178
5914 1 32.8269 32.511 57.4974
851 1 34.825 34.4898 54.123
4443 1 -0.125349 33.3016 55.2293
5432 1 14.0838 35.2666 55.042
4473 1 33.9182 -0.202673 55.0594
5259 1 32.5518 32.8798 55.0713
7649 1 33.8241 34.3405 56.325
6079 1 1.08915 0.31108 60.8317
5896 1 0.0565762 0.884695 62.8435
4134 1 2.48643 1.19376 58.8257
3350 1 1.08977 5.12439 58.6628
1199 1 1.81837 3.33716 60.3206
7838 1 4.81431 0.922513 59.1076
1351 1 3.24186 35.789 58.1594
2299 1 3.47065 1.02435 61.3026
4958 1 6.14757 0.898137 61.5048
4691 1 6.38253 2.86982 60.1889
5153 1 5.13401 2.37937 62.7355
922 1 7.40199 1.22675 58.0393
5747 1 8.45961 36.0678 61.3505
2872 1 9.99946 3.69468 62.1806
2779 1 8.78837 35.838 63.8696
595 1 8.48831 1.49728 60.1773
6705 1 9.58541 0.943087 62.4444
278 1 7.63227 2.72803 62.362
4064 1 11.0306 -0.0690266 60.1213
376 1 14.1477 3.2437 58.737
5806 1 13.7046 1.39038 60.5028
1004 1 11.3835 2.00205 61.4044
6291 1 13.8164 2.33583 62.8669
547 1 11.4439 -0.0354524 64.1411
5359 1 15.3135 0.668097 62.6919
4684 1 15.4187 2.84451 60.9792
7583 1 16.6523 0.440176 60.9125
6234 1 18.5596 1.95074 60.7549
5819 1 17.0609 2.46876 62.6284
3039 1 20.7784 0.511364 60.4579
2234 1 23.8292 1.0576 61.3988
3088 1 23.7519 0.9762 58.0455
3280 1 21.9389 2.41641 61.9635
7902 1 19.8931 0.874301 63.155
1562 1 22.1628 2.14383 59.6992
1503 1 26.4086 0.578961 59.8041
191 1 24.9622 2.27822 59.603
3745 1 27.374 2.92024 60.6257
5025 1 25.7682 0.0266757 57.5208
1982 1 28.0545 0.680145 61.535
948 1 25.5482 2.50779 62.0774
5421 1 29.874 3.46237 61.5767
5969 1 29.8259 2.21001 59.4965
4398 1 30.2629 0.781849 61.6603
553 1 31.7551 0.971985 60.0338
7412 1 30.5279 -0.0182379 58.0664
2395 1 32.2917 2.60155 62.1184
385 1 28.6239 3.92709 58.723
3753 1 32.1468 3.45948 60.0871
5982 1 28.1377 0.0414867 58.241
2709 1 34.4467 1.37122 61.944
60 1 34.0235 1.74192 59.6326
6610 1 -0.332656 2.36319 60.9
2636 1 34.1869 3.70971 61.3209
3418 1 3.33493 6.02465 58.0249
3653 1 -0.299914 5.11226 60.5408
3256 1 4.2713 6.67032 62.2426
3747 1 2.37914 5.37517 61.0659
6644 1 1.94302 4.33371 63.8281
2367 1 36.0597 7.60907 60.7156
224 1 0.788426 6.44552 62.5091
5190 1 3.92943 3.47523 61.2521
7440 1 4.60619 5.27803 59.8411
7155 1 4.53781 7.72396 59.8483
3189 1 5.90442 4.81516 61.7931
543 1 6.56331 5.86748 63.7022
7835 1 6.83301 6.50815 60.0623
540 1 9.61644 2.8476 58.0015
1348 1 9.44713 5.87624 59.1028
4068 1 8.25224 4.02473 60.5277
4147 1 10.8647 3.41657 59.7676
5498 1 10.1081 7.52866 61.1909
154 1 7.75813 4.24704 58.4824
2051 1 10.6663 5.30361 60.758
6697 1 9.05935 5.28589 64.1664
7840 1 12.589 4.91032 59.0726
2366 1 12.8762 3.6946 61.0044
5034 1 14.8466 5.08198 60.479
7356 1 15.5346 4.16946 63.3667
6868 1 12.767 6.68245 60.7515
1418 1 14.2553 6.62375 58.6594
3597 1 18.4191 3.31085 57.6161
6279 1 17.4953 4.17283 60.962
936 1 16.8866 6.57943 60.6617
4230 1 18.3381 7.53226 62.4991
5727 1 19.9715 3.89101 62.7171
5814 1 19.7382 5.76451 61.2559
1346 1 15.583 1.73956 64.6431
3893 1 19.9718 3.54327 60.1241
3743 1 22.1148 4.73902 62.395
4697 1 21.7447 5.04906 60.0391
2956 1 21.4735 7.59726 61.2621
5278 1 24.4166 4.73389 62.5788
5985 1 25.6636 4.88336 60.7951
3177 1 25.8696 6.64015 62.486
7027 1 25.6284 7.12905 60.0196
5643 1 27.4918 4.79731 62.5744
7278 1 23.5758 3.60835 60.8186
3599 1 27.8005 5.95754 60.0754
4243 1 30.2498 5.61293 59.4504
318 1 31.8995 5.33442 61.5267
4317 1 29.5686 6.22132 61.7442
5437 1 31.3454 9.29868 59.7612
4786 1 30.204 7.03288 64.0099
3337 1 34.9081 6.57038 58.731
6392 1 32.3165 6.69359 59.3731
4319 1 34.0692 6.06599 60.9908
944 1 33.3871 4.62997 63.2807
2203 1 35.3703 6.37502 63.3397
7818 1 32.3293 7.6701 61.7045
6452 1 2.56565 8.46279 57.8942
7266 1 0.784408 11.1011 60.7872
5831 1 0.183016 9.2922 62.3865
484 1 1.84981 7.20821 59.7711
7190 1 2.84571 9.81923 60.0182
219 1 2.35468 10.3686 62.3342
5476 1 6.36811 9.21185 59.4301
6376 1 5.46983 7.12609 57.8673
1750 1 8.69219 8.43031 58.847
1914 1 6.27157 7.68298 61.8953
5275 1 6.88027 11.0752 61.8721
784 1 4.69286 9.57331 62.1473
7755 1 10.923 9.60458 60.3593
856 1 8.24038 9.08602 61.0322
229 1 9.74462 9.76414 62.9232
7258 1 9.88165 11.786 61.3416
1242 1 10.1298 11.4747 59.0188
1035 1 11.5259 6.19677 62.9408
1247 1 11.2178 7.42812 58.8396
7120 1 11.8986 8.39469 61.9827
5823 1 14.7914 8.74146 61.1377
560 1 16.4341 11.0907 62.6837
5760 1 15.0665 11.2291 59.9507
6467 1 13.4585 10.7564 61.6248
1999 1 17.0861 9.01026 61.4769
622 1 16.6512 8.03316 64.3917
862 1 15.3476 6.98398 62.4806
767 1 19.8274 11.0017 59.4582
1552 1 20.4496 9.99796 61.7403
3993 1 19.4102 8.47682 60.0772
4689 1 17.8115 13.4052 59.2801
5405 1 23.4926 6.32682 60.8514
4447 1 20.2073 12.2568 62.9149
6947 1 21.5224 8.96705 59.3133
1958 1 24.5347 11.1539 61.1358
6142 1 23.3046 7.2521 63.0308
3579 1 22.6578 11.1969 63.0496
4069 1 22.8283 9.40694 61.3825
5121 1 21.0495 7.67455 63.5244
3979 1 24.8793 8.64172 61.3493
7987 1 26.2539 10.8072 59.4468
3836 1 26.114 11.3609 63.6882
4853 1 26.8451 9.87031 62.0691
4159 1 24.4005 9.43116 63.4301
4598 1 27.7837 8.40682 60.361
3902 1 29.4361 8.70762 62.0469
1919 1 28.7638 10.3965 60.508
5515 1 30.0729 10.9085 58.3316
7967 1 32.5367 10.3528 61.5684
3403 1 32.0984 9.55369 63.7047
4679 1 30.4672 11.095 61.8746
1272 1 33.5754 8.36745 60.2136
6470 1 0.593907 9.32563 59.3994
1566 1 35.1786 10.6002 60.78
2216 1 0.0359379 11.9021 62.7854
6880 1 34.5098 9.09759 62.8117
2289 1 33.9983 11.5393 62.7251
2311 1 3.00822 12.2231 60.3135
7245 1 2.97422 15.1472 58.6732
6074 1 0.42332 15.2752 59.0536
2641 1 3.08332 13.6813 62.5709
3353 1 0.588147 13.5766 61.4655
637 1 1.2954 13.1033 59.1543
4712 1 2.35757 15.2206 60.764
2050 1 4.93495 10.8892 59.9841
3023 1 6.16955 12.8307 60.2242
2857 1 4.47901 11.937 62.0199
3821 1 4.80718 14.5013 59.7946
5572 1 8.63333 15.493 59.7748
7828 1 7.73544 11.1523 59.6893
1230 1 9.45776 13.4096 59.68
2387 1 7.95384 13.3108 61.6185
7331 1 9.84818 13.263 63.0149
5315 1 11.6028 11.6204 63.0334
2558 1 11.9609 13.2697 61.1778
5019 1 12.3891 11.3908 59.4704
2473 1 12.8367 15.7967 58.5673
4293 1 13.5723 13.5382 59.5838
1888 1 13.9717 13.6401 62.3879
6523 1 13.6267 15.8688 60.954
3070 1 15.7449 15.3944 62.8184
4532 1 19.6231 13.2806 60.6432
7578 1 15.8258 13.1682 58.2589
3758 1 15.7996 12.971 61.0398
1910 1 17.8936 13.9232 62.2405
3254 1 16.7685 15.5982 60.7443
3839 1 18.6235 11.302 61.5061
1275 1 17.1676 15.1435 57.5035
2079 1 22.088 11.4469 60.3736
4080 1 22.3749 13.3878 61.7323
478 1 24.8114 13.7764 61.9155
5894 1 20.9272 14.8751 59.9287
3911 1 22.8202 15.9722 61.5524
1089 1 23.0822 16.0018 59.051
5255 1 25.8685 13.1647 59.702
1898 1 24.5275 12.9365 64.3095
6951 1 27.1211 12.3507 61.6872
2631 1 25.681 15.9533 62.3465
2068 1 27.9319 14.9108 61.2281
7505 1 29.9649 13.2269 57.7326
5026 1 27.8454 14.5781 58.9309
7422 1 28.4205 12.4868 59.4664
6238 1 31.1239 12.8329 59.8592
3916 1 30.2075 15.0621 59.5726
2791 1 30.4407 15.1422 62.3983
4630 1 31.9198 14.2373 58.0009
2147 1 32.2175 14.8337 60.6855
3891 1 34.6043 15.1009 58.6369
6316 1 33.159 12.4908 60.6224
558 1 35.5665 15.5073 60.777
6884 1 35.1596 13.6585 62.1093
4868 1 35.7685 12.9948 59.9436
1257 1 0.303646 17.0928 60.9993
5410 1 2.7628 17.2174 59.5933
1338 1 2.55789 19.2611 60.5064
765 1 0.854439 19.81 62.2948
3589 1 -0.273667 19.7101 59.7415
5665 1 6.47921 15.8801 60.5316
7729 1 4.40398 15.6074 62.0629
7990 1 6.36438 17.9101 58.9659
5507 1 4.27796 19.0657 58.8121
7761 1 4.77959 17.5813 60.8486
315 1 8.06791 17.9435 60.7891
1255 1 8.19938 15.5031 62.6034
1073 1 12.5045 18.2413 58.7875
7665 1 10.1284 17.5489 59.5853
5338 1 10.2344 19.1893 61.7299
2561 1 7.83615 19.1862 62.6318
3410 1 10.2727 16.8624 62.6517
7343 1 12.0707 18.7348 63.1941
5077 1 12.4064 15.6563 63.0842
3124 1 12.2085 17.7397 61.0228
1582 1 14.9541 17.4336 58.8613
6683 1 14.0988 19.0152 61.2457
3266 1 14.3263 17.3774 62.8484
5820 1 16.0702 19.0492 63.1213
5916 1 16.1686 17.8522 61.0139
3275 1 17.3182 17.276 59.1065
4513 1 17.6783 17.1225 62.4254
2067 1 18.3296 19.2893 62.7439
7657 1 20.7877 17.5824 59.2882
634 1 19.1132 16.3533 60.6462
1161 1 22.0491 18.7068 60.6843
1510 1 24.5773 17.5633 60.3827
3913 1 20.5278 17.7115 62.1884
2235 1 18.75 18.7501 60.2724
301 1 23.7128 19.5644 58.971
6942 1 24.1782 17.3213 63.0271
6479 1 26.936 16.5971 60.2378
6465 1 26.5991 17.9505 62.0246
1112 1 26.3314 19.1852 59.7082
466 1 24.7463 19.9046 61.7815
5264 1 31.1651 17.1138 60.844
1113 1 29.2254 16.9701 59.1855
6629 1 28.4448 18.8642 60.8261
2466 1 30.8708 18.4022 62.4901
1342 1 28.8551 16.9013 62.2448
5736 1 33.7362 16.8235 60.9911
6617 1 32.532 18.9262 60.6127
7357 1 33.4831 18.831 63.1133
3024 1 34.7369 17.8596 59.2151
76 1 35.0731 19.0634 61.3915
523 1 34.2234 20.1759 58.9296
1913 1 1.963 24.1086 58.5018
6288 1 -0.0334778 21.5597 58.7657
3021 1 1.98598 22.2657 59.9629
383 1 3.16659 21.0186 61.9634
2959 1 4.80159 19.0139 62.6644
6154 1 5.72399 22.6575 58.1516
5444 1 4.29971 21.0108 59.7263
6532 1 6.16414 19.9281 60.415
1592 1 5.91401 22.6792 60.4558
6706 1 3.71203 23.5613 60.1901
4079 1 10.7333 19.9598 59.4682
1498 1 8.50843 19.4656 58.8775
1098 1 8.38174 20.9829 61.0145
7118 1 10.1599 22.0636 60.221
5314 1 11.3296 24.1255 60.225
1425 1 12.5816 20.4647 60.6933
3665 1 13.7755 20.5485 58.3393
2141 1 12.956 22.8585 60.8593
934 1 13.4719 21.239 62.8736
7028 1 11.3879 22.3523 62.3608
3407 1 14.3177 23.8193 62.6297
4480 1 16.9321 20.0273 60.8833
2784 1 15.6754 21.6906 62.095
2074 1 14.6015 21.648 60.0422
7885 1 17.8008 21.851 62.6322
5810 1 17.3856 22.2318 60.0785
2918 1 19.8486 23.0133 62.0471
1163 1 15.3428 23.9603 60.1658
7279 1 16.9041 23.7727 61.9888
6468 1 22.9975 22.2952 58.4943
3193 1 20.991 20.3154 58.7903
5757 1 19.8235 20.7123 60.7803
7663 1 20.9363 22.5156 59.9509
5751 1 21.132 25.0259 60.5829
1196 1 22.8687 21.1893 60.844
4637 1 21.1324 20.6063 62.7031
5737 1 25.2883 21.482 59.779
531 1 27.2454 22.2756 58.2551
2880 1 26.8964 22.7742 62.1885
3242 1 26.9292 20.3422 62.5069
1579 1 24.7566 22.0303 62.3724
2312 1 29.3354 20.3228 62.7078
2480 1 30.4274 20.1915 60.7233
4644 1 27.7419 21.2088 60.1313
7901 1 29.3481 22.2927 61.325
7492 1 31.7324 22.6765 60.5154
4839 1 32.0948 20.9609 62.1898
3093 1 31.798 23.5369 57.843
5824 1 33.9874 21.1939 61.1916
1178 1 35.9025 22.7379 60.927
7911 1 33.6088 23.4124 61.6247
5817 1 -0.42748 24.532 62.4909
5100 1 1.46588 24.6629 61.0635
6953 1 1.26485 26.8782 62.4229
6453 1 3.54834 26.8819 62.6008
6310 1 3.59855 25.7501 60.1618
2357 1 -0.427798 26.231 60.6958
483 1 0.132313 27.1028 58.7976
5512 1 3.33117 24.4196 62.4691
6634 1 4.51157 24.7672 58.0594
6069 1 7.50642 24.6245 61.1355
6362 1 7.20803 24.4107 58.6109
5589 1 5.99852 26.0201 60.214
1410 1 5.40509 25.3299 62.5927
1427 1 7.28793 26.8127 62.0121
7344 1 9.44198 24.4828 59.1309
5096 1 8.7429 26.7467 59.8067
4458 1 9.36722 23.6021 61.7049
4954 1 9.35947 25.9496 62.0901
1284 1 11.7381 27.6121 63.1399
2599 1 12.2713 26.3139 58.65
1909 1 13.3584 25.2233 60.7788
5411 1 11.6991 24.893 62.3456
1024 1 14.0061 27.1516 62.12
4759 1 15.4262 25.5932 62.3243
6237 1 15.2113 26.9699 60.2445
1187 1 18.8387 23.9408 60.0916
3832 1 16.9542 25.3587 60.1656
1990 1 19.2588 26.5855 59.6431
2541 1 19.0935 25.5015 61.8963
4956 1 17.2424 27.1941 61.2709
5420 1 23.3536 25.4997 59.7381
3903 1 21.2136 27.3629 61.5243
3571 1 23.2427 25.6524 62.3008
2390 1 23.1979 28.2647 63.3651
4306 1 25.0468 27.1113 61.3138
4119 1 21.1259 25.2995 62.9119
3439 1 23.8727 23.2744 60.2748
7099 1 25.1876 24.5812 62.0226
7022 1 27.4818 23.6574 60.2193
211 1 26.6378 26.4313 62.8336
4149 1 27.7402 26.3234 60.8277
7017 1 28.471 24.5548 62.2205
7430 1 25.653 25.0052 59.5683
1581 1 29.8612 24.0934 59.7094
2043 1 29.2194 27.5637 59.7133
1757 1 30.3212 25.6853 58.0963
3261 1 30.2979 25.7408 61.5388
6314 1 30.9323 29.1443 60.5694
2208 1 31.0702 23.5636 62.5011
3990 1 29.2638 28.3455 62.2488
4683 1 34.5441 24.8813 59.7928
5519 1 31.9162 24.7785 60.0462
4867 1 34.3843 27.1817 59.3856
5890 1 32.1652 27.5988 61.8775
6131 1 33.8752 25.7078 61.8353
2785 1 34.3006 28.1667 62.7105
2547 1 0.0251887 34.167 59.3138
1154 1 -0.421124 29.4617 62.3292
3517 1 2.23119 27.6393 60.2439
3646 1 1.32984 30.4023 61.0542
1252 1 0.0326103 30.971 59.2101
6788 1 35.6362 28.8484 60.0562
697 1 1.14486 30.3974 64.1493
2775 1 2.87004 33.1018 58.9546
7427 1 2.76345 29.1628 62.7891
4862 1 4.77273 27.4805 59.1596
5475 1 4.9482 30.5369 62.914
3327 1 5.32321 28.1061 61.9133
3910 1 4.14271 29.193 60.2423
4388 1 5.99207 32.4988 57.661
237 1 7.15065 28.7868 59.7502
1680 1 7.33084 29.1792 62.0732
1568 1 5.87899 30.6582 60.6115
7181 1 11.1048 26.6846 60.9765
6792 1 9.67954 28.3101 62.0349
2789 1 9.4518 29.8499 60.3652
7100 1 11.4594 30.6954 60.281
7096 1 11.4415 29.8628 62.5452
2694 1 12.5943 28.4717 60.2936
388 1 13.6377 32.1803 59.4163
5350 1 15.2447 31.4674 61.3381
4873 1 12.7385 32.5065 62.312
5169 1 14.5996 29.6307 60.2288
1676 1 15.6401 29.06 62.5726
4472 1 13.7565 30.2883 62.332
5654 1 17.0631 28.3734 59.321
1650 1 19.2417 28.792 60.955
4466 1 17.2137 30.0832 61.03
1924 1 19.1986 30.7728 59.3477
5658 1 19.1751 30.9864 62.3893
7888 1 21.6362 27.0534 58.986
7514 1 23.4171 29.0694 60.9746
4235 1 21.5886 29.738 59.4162
3433 1 23.9602 31.1882 60.3308
4468 1 25.3855 31.5193 58.3296
2849 1 21.228 30.17 61.8292
7034 1 25.1244 29.6009 62.6907
5494 1 25.5663 29.4577 60.0451
365 1 24.7275 32.202 62.3664
2396 1 27.1832 28.4942 61.8156
5807 1 26.6726 30.9732 61.2597
6049 1 28.5013 29.8046 59.7686
459 1 31.918 30.8602 58.9689
3833 1 31.5437 32.0104 62.8897
1181 1 30.5352 31.7915 60.7175
6937 1 29.7787 31.8031 58.6127
6701 1 31.6176 29.7455 62.7356
797 1 33.6636 30.4425 63.3862
2759 1 34.3882 30.8228 58.7937
3652 1 35.1712 31.1352 61.2231
512 1 33.3548 29.6311 60.7981
5670 1 33.0812 32.3982 61.038
2952 1 35.6697 31.7438 63.1292
6449 1 0.377046 35.085 61.8932
1356 1 35.3928 -0.150904 60.2272
2556 1 2.5688 35.4287 62.6498
713 1 1.24065 32.7363 61.1375
300 1 2.05419 34.9027 60.0861
4884 1 2.90645 31.4815 63.3074
313 1 5.01369 34.6719 59.109
5339 1 3.29855 31.6168 61.0256
3483 1 3.74504 33.8561 61.2452
4702 1 6.08135 32.5891 62.2659
3737 1 5.02154 32.6601 59.9091
5006 1 4.80408 35.8238 61.2461
3104 1 9.41103 34.9378 59.7131
5908 1 6.73505 -0.383548 59.6592
1907 1 10.6336 32.4438 62.2226
3502 1 6.90334 34.0944 60.6823
4940 1 7.11053 34.507 58.1829
4627 1 10.6652 35.2672 62.0467
4540 1 8.27863 31.358 61.9388
2282 1 14.1465 33.7912 60.8586
1997 1 16.3596 35.9442 58.7722
1651 1 12.9614 0.134665 61.9401
5825 1 11.8612 34.0585 60.3932
620 1 15.3316 32.8459 63.1606
5662 1 16.146 33.3222 57.5987
3172 1 18.1282 35.177 61.9635
4928 1 19.5287 33.7227 60.3263
7592 1 15.6796 35.3531 62.3176
2623 1 16.9677 31.6731 59.5398
4707 1 17.4612 32.717 61.8216
3511 1 16.453 34.3689 60.4326
2866 1 18.4059 -0.55737 59.7565
6793 1 20.5438 35.5183 62.0285
2639 1 21.1527 34.8778 58.8691
6140 1 23.5801 33.5024 59.3195
7807 1 21.3916 32.2028 59.4828
6139 1 22.922 36.0944 59.5369
717 1 22.6358 33.2176 61.5243
5524 1 22.6509 35.7926 61.8857
4046 1 25.5642 33.011 60.2573
1659 1 24.8405 35.4101 61.9071
7906 1 27.1694 35.2988 61.2159
3598 1 25.0317 35.4732 59.5288
4724 1 26.8412 33.509 62.5902
7676 1 29.6862 35.3626 60.6413
2845 1 28.2868 33.1134 60.4748
2048 1 28.5206 35.4479 63.1445
7483 1 31.6099 33.8611 59.8658
2231 1 29.3209 33.2697 62.838
5743 1 31.9268 35.0186 57.6031
5120 1 31.3331 34.5311 62.0756
4628 1 34.7668 35.4987 62.2192
5007 1 34.9159 35.5926 57.8855
4624 1 32.3911 -0.100894 62.181
4225 1 -0.343317 35.6741 56.1847
45 1 35.2741 33.4096 61.4345
5204 1 34.1936 33.534 59.0594
7188 1 33.4353 33.1959 63.4102
1341 1 33.211 35.6768 60.3449
5992 1 2.06876 2.36136 62.3277
474 1 2.48067 1.2249 64.1335
5517 1 0.636858 0.513632 66.0361
3742 1 0.475895 2.41986 64.7171
1106 1 2.48924 2.43763 66.3572
3017 1 4.81077 0.424922 63.689
4963 1 5.09444 2.44583 65.058
7759 1 6.22874 0.392065 65.6854
4136 1 4.14917 0.337176 66.3534
3679 1 6.88567 2.84533 66.7702
1343 1 6.99425 0.891831 63.6387
7880 1 12.399 35.0211 65.6175
5585 1 8.33114 0.943122 66.4211
1266 1 10.2825 2.05025 66.5767
2148 1 11.0718 34.0186 63.9733
4462 1 11.686 2.37027 63.9496
5344 1 14.0952 0.0414498 64.4082
3909 1 12.4712 0.932809 65.9316
6724 1 14.073 35.6041 66.8245
6946 1 14.4613 2.33513 66.8832
3429 1 13.6744 0.7075 68.6114
957 1 15.9711 0.330871 66.4054
2564 1 17.5447 2.28748 66.6131
1976 1 17.5744 0.400941 63.5842
5178 1 19.2657 2.09791 64.8416
6858 1 20.7174 0.148915 66.2315
1666 1 21.9779 1.24816 64.3996
5039 1 23.7071 2.63149 63.6847
5439 1 21.9441 35.0982 63.9306
2481 1 21.3197 2.30609 66.7069
3109 1 23.3722 0.602654 66.4235
4687 1 23.9996 -0.148034 63.8514
1994 1 26.2912 3.57413 66.3365
5360 1 26.7492 0.457405 66.6605
2230 1 27.7596 2.32451 63.0664
2238 1 25.4528 1.60108 64.9656
3982 1 28.511 2.18544 66.6403
5343 1 28.1241 0.50333 64.6507
7999 1 30.3333 0.355773 66.0724
3250 1 30.1584 1.91973 63.6944
4865 1 31.9685 0.995508 64.1798
5431 1 32.2806 1.92726 66.7004
1409 1 -0.135261 3.97287 62.623
3002 1 33.7276 0.216669 66.6728
5031 1 35.3658 2.22972 66.4249
3751 1 34.4264 2.08895 64.2652
7361 1 35.2926 0.0192736 64.503
5829 1 35.9898 35.3125 66.1803
1815 1 4.67014 6.31753 65.2954
4534 1 0.892581 4.34882 65.9011
1818 1 2.54764 6.12616 66.5776
7597 1 0.786085 6.29668 64.6158
6801 1 2.54812 4.14242 67.8721
7011 1 4.91016 7.87708 63.9885
3034 1 4.04728 4.65222 63.3239
1096 1 7.00644 5.60432 66.3507
715 1 4.76875 4.5651 66.5494
872 1 6.76894 7.48928 65.1164
2629 1 9.27996 2.19276 64.3736
2239 1 7.18513 3.55185 64.4756
5909 1 10.7699 4.15543 65.0224
2931 1 8.69768 3.85167 66.2742
2951 1 10.1763 3.74083 68.4404
2057 1 12.4172 5.71975 64.9636
4301 1 12.1856 3.67395 67.0621
4455 1 13.444 4.96724 62.7034
138 1 13.7041 3.75376 65.1583
4133 1 13.8746 6.07733 66.9793
5170 1 15.3481 6.12337 65.0588
1761 1 13.4236 7.63277 63.6489
1833 1 11.3399 5.7996 67.7467
5995 1 16.1162 3.93743 66.9405
1839 1 17.5539 4.09744 64.6687
2878 1 17.972 6.00865 66.0785
1838 1 19.7024 3.97208 66.3163
3592 1 19.3821 5.6256 64.1677
4560 1 21.3096 3.77986 64.9046
6870 1 21.5911 5.51281 67.0546
1840 1 23.3338 3.33918 66.3707
152 1 22.8297 5.35883 64.6953
6556 1 22.7834 7.65505 65.9442
2458 1 26.0255 3.68463 64.0927
5655 1 24.7195 5.60228 66.7085
4613 1 28.6649 3.56255 64.9385
5836 1 27.0548 5.78798 65.2811
4622 1 26.9152 7.40104 67.1976
3031 1 30.8663 4.77267 63.4273
4946 1 29.1994 5.643 65.6921
2553 1 30.8169 3.48384 65.9444
158 1 32.5216 3.35108 64.523
6950 1 32.3988 5.68941 65.8834
1739 1 28.0963 6.97711 63.1433
3719 1 35.6688 4.31704 64.7267
479 1 33.0784 7.12152 63.9187
4393 1 35.4704 6.18751 66.1962
3992 1 33.8632 4.03528 66.1446
3106 1 35.6057 8.12457 64.8196
7334 1 2.71919 8.22537 61.9055
5197 1 1.10609 8.28069 66.2646
7981 1 2.69562 7.74179 64.459
7518 1 2.50899 9.9901 66.0877
7764 1 0.906539 10.2577 64.364
4615 1 0.606832 11.8389 66.3565
3496 1 2.63696 11.9406 63.9352
1189 1 7.21019 9.27605 63.445
1430 1 4.59771 8.27242 66.0785
311 1 8.49047 7.26565 67.2295
3987 1 5.97018 10.3139 65.7207
1175 1 3.74359 10.0144 64.3591
1974 1 8.73729 7.48444 63.1919
3764 1 8.10138 11.7816 63.5978
5832 1 8.52742 9.15406 65.4991
7014 1 10.186 6.47186 65.942
533 1 10.6667 8.05126 64.3704
876 1 10.4359 9.17222 66.5422
394 1 9.80031 10.9944 64.8649
1834 1 7.80189 11.8905 65.7951
1201 1 10.4914 7.87003 68.6087
4765 1 12.5448 9.97967 64.3363
7816 1 12.2905 7.78243 66.6143
48 1 14.3103 9.67486 66.2851
6872 1 15.1254 9.43443 63.379
5672 1 16.0676 8.35552 66.5323
1725 1 14.3461 11.7156 65.1015
7992 1 16.2391 9.83352 68.1674
6153 1 17.6019 5.39277 62.4498
2281 1 20.3631 8.04727 65.648
4625 1 18.431 9.31407 66.0072
6158 1 19.738 10.1548 63.9079
1361 1 19.3537 11.7012 66.4053
3904 1 18.0046 12.3803 64.0865
5346 1 17.4633 7.60441 68.1129
4234 1 21.9066 9.53091 64.4793
871 1 21.2966 9.93992 66.9293
1335 1 24.7397 6.78858 64.5726
2879 1 22.6095 11.8256 67.0948
6446 1 21.3885 7.82751 68.2669
3085 1 28.4208 11.6397 63.5375
3670 1 24.8912 9.00701 65.8713
1912 1 26.3281 8.54378 64.0198
926 1 23.5891 10.9164 65.3675
6564 1 27.7825 10.2276 65.6033
6078 1 28.512 7.93121 65.6095
6075 1 31.8595 11.9165 64.3462
398 1 29.866 9.85214 64.2325
7044 1 29.4096 11.8944 66.0764
2078 1 30.9786 7.88866 65.8637
7827 1 35.8156 10.1414 66.3109
7189 1 31.6515 10.1081 66.1688
5911 1 33.2023 8.27038 66.2209
3889 1 33.9853 10.1828 65.0852
1437 1 33.6466 11.6467 66.8119
7038 1 0.576353 15.3955 62.6649
1091 1 0.71402 13.5909 64.4003
5912 1 2.46902 13.7868 66.2642
7594 1 0.508 15.2981 66.1218
4151 1 2.60109 15.5512 64.3015
2548 1 4.47603 12.2215 66.1234
1570 1 5.64915 12.0982 64.1906
1670 1 6.64494 13.8974 66.0712
307 1 4.55857 13.8591 64.5543
4522 1 4.52783 15.3598 66.1768
1758 1 6.15455 15.5626 64.3341
5355 1 8.38507 14.1694 64.2913
7821 1 8.26537 15.6557 66.1673
2515 1 5.9342 13.8126 62.5073
2161 1 10.1872 13.5177 65.9961
1518 1 10.3395 15.4873 64.5676
1165 1 11.8735 11.1561 66.2675
7601 1 11.8359 13.4444 64.3494
7269 1 12.2668 15.1406 66.2481
384 1 16.6602 10.9615 65.1436
7634 1 14.0544 14.8734 64.6625
1036 1 13.2418 12.9032 66.4539
1107 1 15.5404 13.3514 64.1652
3581 1 15.9177 14.8628 65.8818
7512 1 17.7727 13.558 66.4415
1116 1 19.6276 15.457 66.3097
4300 1 19.8406 14.0473 64.4688
2084 1 15.707 13.2326 67.9589
5878 1 22.2561 13.7845 63.9954
1195 1 21.3883 11.8857 64.9012
4445 1 21.1337 13.2368 66.863
2999 1 20.5772 14.9037 62.3436
3604 1 22.141 15.3846 66.2746
3681 1 22.6714 13.8896 68.2715
467 1 27.2316 14.2331 63.8112
2710 1 26.19 12.3007 65.9775
2296 1 24.0733 13.7479 66.4091
2210 1 24.2329 15.4404 64.2002
4564 1 26.1406 15.0307 65.9638
7825 1 24.5132 15.2511 68.168
1985 1 26.3838 13.5327 68.1961
7012 1 29.1525 13.1627 61.893
1101 1 28.8276 15.7306 63.9865
2077 1 31.649 12.9609 62.2293
1583 1 28.052 13.929 66.7662
5358 1 30.1991 13.7182 64.3503
5898 1 30.1892 15.0956 66.0988
4957 1 31.9995 13.1685 66.3979
2062 1 32.1306 14.8769 64.7354
75 1 35.2809 11.7889 64.7575
3831 1 33.8213 13.2475 64.8021
619 1 35.6426 13.3583 66.3797
377 1 35.3979 14.9709 64.2927
4626 1 2.61769 17.6143 62.0885
1662 1 3.19882 19.1566 64.3639
5345 1 0.702978 17.7216 64.0543
7916 1 2.51981 17.0037 65.9217
6877 1 0.680686 19.0286 66.1788
5433 1 6.28527 17.1727 62.7077
5189 1 4.22992 17.141 64.4682
6783 1 6.19404 17.0491 66.1073
1426 1 4.66982 18.8588 66.2378
6135 1 6.23383 18.9867 64.5962
2393 1 8.37036 17.5148 64.3146
1587 1 9.84126 19.2744 64.2149
7684 1 7.85923 19.0436 66.378
551 1 10.2294 17.3465 66.1254
3582 1 12.2229 17.0956 64.8492
7747 1 11.9915 18.9972 66.1335
3432 1 14.2873 19.4406 64.5443
6639 1 15.5963 17.5132 64.9286
2229 1 14.0057 17.1105 66.2583
4148 1 15.4913 19.2711 66.662
6956 1 17.7098 14.8963 64.3029
6302 1 17.4891 18.7739 65.0187
2611 1 17.4325 16.7541 66.3166
367 1 19.3126 18.8779 66.4736
629 1 22.6286 18.9774 63.09
3358 1 19.4032 16.601 63.9467
78 1 21.8497 16.4904 63.9895
1417 1 20.888 17.555 66.0708
3284 1 20.5839 18.7926 64.1163
935 1 23.1349 19.6723 66.161
1416 1 26.2811 17.028 64.2985
1279 1 23.7941 17.363 65.6459
5258 1 25.9505 18.694 66.1716
539 1 25.1368 19.3471 64.1207
5194 1 32.3931 16.8076 62.9086
1322 1 28.3853 18.6337 64.0348
7079 1 30.7851 17.1908 64.9687
6786 1 28.3961 16.8083 65.9827
5979 1 29.8768 18.7319 66.3567
687 1 32.2365 17.1814 66.7608
2876 1 31.2479 19.707 64.2038
7041 1 33.588 15.3433 66.6505
4061 1 33.5184 14.8351 62.5831
7829 1 35.4332 16.953 62.7425
6638 1 35.6086 19.2383 64.3094
7734 1 35.7524 17.0224 65.988
6398 1 34.1139 19.0447 66.0962
7920 1 33.8412 16.855 64.7405
1512 1 1.31305 22.383 62.2147
1679 1 2.48254 20.8418 66.4027
2389 1 0.826501 22.7808 66.318
4932 1 1.15485 20.7903 64.3305
5316 1 2.99257 23.0032 64.1064
2855 1 0.875181 24.443 64.8166
6849 1 4.99963 22.7953 62.5907
3091 1 6.02869 21.0118 62.3771
3837 1 4.35963 21.2276 64.2322
1569 1 5.9321 23.2897 64.742
7272 1 4.29052 23.0772 66.7703
1812 1 5.95366 21.0083 65.9451
776 1 9.51973 21.376 62.9887
4869 1 7.98359 22.866 65.8075
7678 1 7.72563 20.7246 64.4634
6879 1 9.64435 20.7235 66.2141
6287 1 10.1059 23.2885 64.2577
5033 1 11.6863 21.1748 64.2861
4686 1 11.5531 22.3381 66.1268
7895 1 13.955 20.7114 66.6342
869 1 13.9248 22.3692 64.7734
1521 1 15.7016 22.8919 66.6025
2479 1 15.7046 21.1112 64.7279
1920 1 19.2757 20.5408 64.3653
2691 1 17.7468 20.6916 66.1504
3584 1 18.988 22.7232 66.2227
7995 1 17.1844 23.0671 64.6025
1740 1 22.3548 23.1493 61.8073
5415 1 20.9579 22.8744 64.0378
3245 1 21.3463 20.8669 65.9162
3176 1 22.7951 22.8227 66.0064
5423 1 23.0762 21.2069 63.8239
6147 1 24.7494 23.0334 64.3754
2160 1 24.8228 21.5203 66.5844
4784 1 26.512 20.9772 65.0246
7350 1 27.1229 22.8262 66.5419
2715 1 28.196 22.3913 64.1435
1020 1 28.9937 20.5018 65.6249
564 1 29.6776 22.6743 66.3505
1576 1 30.7132 22.0604 63.8853
3512 1 31.7034 20.7441 66.0742
4791 1 35.8967 21.1259 62.8211
2718 1 33.1508 22.7239 63.7463
4718 1 35.5354 22.6105 64.6625
5991 1 35.8136 20.7973 66.1726
5977 1 33.9208 20.7889 64.4167
4042 1 33.8514 22.5924 66.2206
6964 1 2.55725 24.5843 66.4467
2300 1 0.524994 26.5971 66.3164
638 1 2.49421 26.4014 64.5724
2796 1 7.49526 23.0217 62.9053
2381 1 4.55554 28.0195 64.4696
552 1 4.35698 25.0532 64.8434
7433 1 6.2189 24.7163 66.6414
6560 1 4.21346 26.8525 66.6254
6526 1 6.47589 26.4481 64.6694
1669 1 4.45022 24.9094 68.1594
2394 1 8.25376 24.8586 63.959
1959 1 12.2545 24.0301 64.3791
6305 1 10.0192 24.2118 66.2713
5573 1 8.29046 25.7463 66.236
623 1 10.5288 26.1829 64.4623
2472 1 11.8963 26.0938 66.3588
555 1 13.1728 29.0973 64.1713
3094 1 13.6419 24.4511 66.4195
1103 1 13.1124 26.3198 64.2346
790 1 15.7244 26.9753 64.0357
4714 1 15.3323 24.6816 64.7427
4536 1 17.5825 25.9266 63.7696
6628 1 14.9649 26.6884 66.2297
3438 1 16.9071 25.0461 66.4568
7325 1 19.4389 26.3665 65.4457
1108 1 18.9571 24.2336 64.1567
5838 1 17.563 27.7571 66.0556
2539 1 20.7794 28.4353 63.3515
2559 1 21.6893 26.6271 64.7275
4000 1 20.9561 24.5934 66.2522
6379 1 22.853 24.4169 64.3727
3276 1 23.1035 26.2163 66.6363
3274 1 24.5767 24.3822 66.396
3924 1 24.4513 25.9284 64.3154
6000 1 26.2627 25.8217 66.0778
5650 1 26.8618 24.4073 64.2449
6784 1 30.8789 27.9496 64.2849
3105 1 28.8296 26.4265 64.1881
6321 1 28.2793 24.9156 66.2215
5106 1 29.8337 24.1058 64.4237
395 1 30.4369 25.8751 65.7844
6220 1 32.0876 28.098 66.3948
3994 1 27.9832 27.758 66.6243
3190 1 31.8246 23.7094 65.6271
5333 1 31.8009 25.6566 63.949
7352 1 35.5035 24.5075 66.0856
3119 1 34.0862 24.6346 64.3166
7338 1 35.6323 26.5482 63.2164
5834 1 33.2911 25.6648 66.2907
2058 1 0.726045 28.1953 64.3214
4692 1 3.29705 29.9859 65.8438
1825 1 2.09128 28.0298 66.2918
6855 1 0.609915 30.6077 66.3852
5680 1 2.35045 31.8599 65.9305
1037 1 6.50913 27.8929 66.5365
2309 1 6.80452 28.9974 64.1131
6151 1 5.7898 30.0573 66.1014
1673 1 6.89038 31.5409 64.3974
1440 1 6.87628 32.61 66.5642
3271 1 8.08843 29.8494 66.1543
7270 1 9.56231 27.7306 66.17
1660 1 9.5344 30.5494 63.8422
1358 1 8.81796 27.486 64.0596
879 1 9.45283 31.8497 66.3114
7791 1 11.0902 28.8394 65.0639
5999 1 13.1551 28.3601 66.4263
800 1 11.4692 27.9947 68.1774
3345 1 15.5322 29.0787 65.0694
4291 1 11.8586 30.7524 66.6552
1828 1 16.9428 30.7733 65.7876
5588 1 14.3774 31.2044 64.6331
2783 1 16.572 30.7546 63.4838
6127 1 17.908 28.7392 63.3191
7897 1 19.3852 29.7006 65.7553
3760 1 16.1531 32.809 65.4104
4879 1 15.2317 31.3555 69.6749
5661 1 17.6341 32.2759 67.4831
2943 1 22.7158 28.4962 65.7506
7674 1 20.2806 31.9996 66.0834
6155 1 20.6249 27.7138 66.932
319 1 21.2065 30.4442 64.6007
2404 1 22.2443 30.3997 67.1446
1513 1 23.1922 30.6129 63.2653
1039 1 23.0966 31.7256 65.3096
3435 1 26.7648 28.0095 64.7534
2719 1 24.8642 29.3874 64.9589
703 1 25.018 27.8875 66.6164
3507 1 26.5928 29.7663 66.3046
2786 1 24.6701 31.2569 67.1166
762 1 26.9762 31.3168 63.6181
393 1 28.9109 30.6528 62.3275
5664 1 28.6914 29.1938 64.3639
1114 1 29.9714 29.0442 66.3315
696 1 29.6107 31.6736 64.9398
2001 1 31.3177 32.0849 66.6587
4640 1 31.5243 30.4035 64.8484
1444 1 33.0771 28.0182 64.3735
1501 1 -0.488866 28.655 66.7299
1754 1 34.7621 27.351 65.5114
1254 1 35.4406 32.2269 65.6909
7276 1 33.3619 32.1106 65.1969
54 1 33.6422 29.8107 65.7931
2717 1 35.5577 29.6211 64.4127
2301 1 0.882538 35.4367 64.3673
5580 1 2.6792 35.4086 65.9625
1267 1 0.761033 32.7394 64.5295
5759 1 2.92573 33.7265 64.283
1588 1 0.890533 33.4987 66.5603
1344 1 6.56526 35.4708 63.0343
4304 1 4.69563 35.0258 64.5228
3199 1 4.74095 32.1964 64.7782
6559 1 4.59548 33.6657 66.8625
7513 1 6.85813 33.9436 64.7718
3195 1 6.33573 35.3012 67.1608
2950 1 8.62052 33.7512 61.9717
7019 1 11.7446 31.6665 64.4866
3426 1 8.5019 35.2336 66.1476
4297 1 10.6214 33.8208 66.5694
958 1 9.1643 32.7634 64.3714
471 1 10.3849 -0.222118 66.4606
6469 1 8.44488 33.751 67.8323
43 1 15.6361 35.2493 64.7874
6004 1 12.7157 33.5089 67.4729
5109 1 13.5032 35.0115 63.1912
960 1 13.9451 33.2292 65.4664
3277 1 14.3886 31.3367 66.919
7353 1 12.0363 35.864 68.1703
4477 1 18.4402 32.066 64.6602
7591 1 16.6437 34.6968 66.6861
3014 1 17.6039 34.0976 64.0123
884 1 18.243 -0.158447 65.8059
1905 1 19.6365 35.7167 64.2301
6941 1 19.4003 34.0397 65.8638
3917 1 21.5981 32.7846 63.9625
7501 1 23.9821 33.9444 63.8441
7277 1 19.6641 33.5977 62.9099
2700 1 24.0614 33.6012 66.1369
3920 1 26.338 0.236845 62.8655
4145 1 24.8 35.8195 66.4747
1184 1 25.1821 32.1412 64.8526
5681 1 26.6848 33.4059 66.7772
230 1 26.1703 35.1255 64.5822
4804 1 28.1761 31.4124 66.5099
5592 1 28.1439 35.4414 66.39
1520 1 29.7549 33.6724 66.1833
6926 1 27.9444 33.3967 64.708
6561 1 30.4909 35.6148 64.4027
6484 1 31.8306 35.3108 66.2621
153 1 31.6355 33.506 64.6983
799 1 35.6719 33.989 63.7935
556 1 32.9767 35.2684 64.1055
7415 1 33.9934 34.2598 66.3057
6643 1 0.792004 2.69321 71.6586
238 1 2.22752 0.82409 67.6599
1817 1 0.633719 2.71709 68.1179
7364 1 0.701489 0.845958 69.6583
161 1 2.44131 2.52729 69.8405
7362 1 2.41484 0.615002 71.5573
6145 1 6.04657 0.891846 68.1489
5186 1 4.45679 2.48228 67.9106
7443 1 6.05521 0.746651 71.7151
7899 1 4.05772 0.933332 69.456
241 1 6.50993 2.17752 69.8415
7442 1 4.26181 2.33057 71.5001
1041 1 10.134 0.909937 68.4784
7830 1 8.49726 2.32043 68.4526
962 1 9.87388 -0.388485 71.4111
6707 1 21.0526 29.2479 54.5874
7360 1 10.1109 1.97903 70.4435
7358 1 12.0404 2.00992 68.5362
964 1 11.9111 0.419057 70.3986
1043 1 12.1276 2.38034 71.9656
3419 1 33.016 30.0132 54.4284
2563 1 19.5581 35.4031 71.6147
1841 1 13.8535 2.32424 70.319
1764 1 15.9334 0.754988 70.3304
7908 1 19.3676 20.0286 54.6833
2638 1 16.4601 2.17496 68.6233
3192 1 17.7539 0.418529 67.986
3521 1 19.3367 0.495185 69.8698
2554 1 18.2435 2.55421 70.0575
2315 1 19.421 2.24315 68.068
5513 1 32.5219 3.95948 54.1562
3440 1 22.8238 1.87031 68.3086
3362 1 21.2011 0.565175 72.0641
2550 1 21.219 0.340047 68.5341
1736 1 22.7865 0.124584 70.3787
2644 1 21.2959 2.35635 70.5887
3443 1 22.9994 2.01255 71.9823
47 1 24.576 0.302788 68.5186
4241 1 24.7745 2.26444 70.049
7586 1 26.6931 0.45878 70.3262
4161 1 26.5532 2.29063 68.1872
243 1 8.14938 1.80411 71.579
6691 1 14.3129 7.8658 54.1161
6525 1 28.3943 2.68588 69.7441
3278 1 32.027 0.403566 68.5443
2870 1 28.3428 0.553412 68.5239
5762 1 32.4393 0.948265 71.9851
5272 1 30.7585 2.34964 68.3054
4964 1 29.6733 1.00379 70.1851
5043 1 30.0266 2.5295 71.8419
5844 1 33.7005 2.23458 68.3222
5841 1 31.9093 2.42673 70.2554
5976 1 35.5964 0.561235 68.0516
6719 1 34.166 0.959423 70.0657
7599 1 35.9186 2.5757 70.0798
5843 1 34.1575 2.79659 71.5593
5768 1 35.7411 0.959018 72.1232
7515 1 0.44697 6.14438 68.207
7521 1 2.45095 6.53423 69.5812
2610 1 0.997808 4.37106 69.9587
7441 1 2.89675 4.62707 71.6447
6723 1 0.835104 6.31167 71.6593
2708 1 2.87272 7.94607 71.7628
7524 1 5.16838 6.42708 68.0178
232 1 6.10434 4.29661 68.5495
1115 1 4.26165 4.82313 69.4508
321 1 6.65946 6.30873 70.07
242 1 6.34344 4.25048 71.0913
7523 1 4.55016 6.05051 71.5892
6286 1 29.2935 27.2663 55.2978
4871 1 8.30079 5.34599 68.5564
244 1 8.46239 3.895 70.6475
1121 1 10.285 6.28176 70.3324
323 1 8.58926 6.11398 71.7154
1044 1 11.9315 4.18206 69.8627
1123 1 12.3599 6.02247 71.5795
1193 1 14.1355 3.80239 68.5756
1921 1 14.4139 6.0572 70.1115
1523 1 12.2679 24.523 71.5708
2716 1 16.1668 4.00151 70.1663
5761 1 31.587 35.4183 70.1328
5200 1 16.0862 5.88282 68.3132
2642 1 18.1596 4.2716 71.648
205 1 17.9967 4.41842 67.842
4318 1 19.8567 4.28349 70.0289
320 1 17.8008 5.98218 70.054
1120 1 19.5042 6.31031 67.8658
2723 1 19.7652 6.35187 71.5787
4312 1 21.6803 3.69417 68.5966
4232 1 23.2582 5.76472 68.4842
3441 1 23.3722 4.1293 70.4624
4548 1 21.3699 5.78343 69.7994
3523 1 23.6569 5.95084 71.821
3442 1 21.4187 4.57544 71.8942
4323 1 26.6731 6.00261 71.6293
5822 1 24.5982 3.96739 68.1708
3444 1 25.0833 6.01871 69.7524
4244 1 26.5373 3.90342 70.0381
5035 1 26.8904 5.04967 68.0693
3033 1 16.1706 3.02279 54.5954
4952 1 28.9234 4.11286 67.6642
1434 1 30.7442 5.78495 67.6667
5042 1 28.315 4.27976 71.7542
5271 1 28.5532 5.96197 69.6507
5044 1 30.2546 4.0793 70.0036
1741 1 32.1861 4.1091 68.1418
5842 1 31.9937 3.98661 71.7772
3919 1 32.1138 6.02236 70.2027
7359 1 29.2477 7.81577 67.7987
5123 1 30.2871 5.95688 71.639
6642 1 35.6279 4.56536 71.5682
4944 1 35.5241 4.46554 67.9832
7748 1 33.3916 6.43089 68.168
5921 1 33.9101 4.34032 69.5158
6961 1 35.7785 6.49828 70.1538
5923 1 33.8888 5.83489 71.789
3030 1 0.755863 9.86581 68.1101
1436 1 2.74013 8.50055 68.374
6722 1 0.803673 8.07037 70.1732
3430 1 2.71226 9.86304 70.2739
6803 1 0.848297 10.038 71.786
5118 1 0.524882 11.6569 69.863
7602 1 2.84195 11.6489 71.5446
481 1 6.42894 8.19429 68.1215
1353 1 4.78689 9.95581 67.8248
7522 1 4.68042 8.12398 69.8489
6212 1 6.23769 9.78442 69.5263
7603 1 4.75381 9.95319 71.4849
401 1 6.60866 11.6597 71.1675
6804 1 4.76149 11.6155 69.7133
449 1 6.45726 11.9098 67.9707
322 1 6.38253 8.03862 71.656
403 1 8.2317 9.7925 71.1506
5562 1 8.55428 9.74076 67.8984
324 1 8.3904 7.65148 69.824
1122 1 9.8064 8.12721 71.4964
1281 1 10.175 10.041 69.2668
1124 1 12.4431 7.41172 69.5796
1202 1 10.3604 11.4875 71.3631
3267 1 12.2571 9.55875 68.4902
1203 1 11.8539 9.35126 71.0314
1922 1 14.1644 7.7034 71.727
1973 1 14.3698 8.01693 68.1872
2003 1 14.3293 9.58976 70.1495
2802 1 15.9113 9.95917 71.8223
2799 1 15.9536 7.99415 70.1461
1204 1 12.0122 11.7411 69.2118
2004 1 15.7176 11.5226 69.9096
2002 1 13.5812 11.7933 71.2278
2722 1 17.6685 7.70812 71.4641
3658 1 19.4747 7.96608 69.8045
2724 1 19.5077 9.71841 68.3203
2801 1 17.8754 9.98642 69.8876
2803 1 19.9004 10.3378 71.4921
5438 1 19.1218 11.8818 69.8343
6933 1 17.3904 11.6961 68.0776
3408 1 17.7324 11.7013 71.6654
3522 1 21.3817 7.90781 71.5869
5754 1 23.4694 9.66473 67.6321
2958 1 21.7656 9.36762 69.4478
4397 1 23.3626 7.67709 70.0588
3603 1 23.1272 9.81976 71.4683
6296 1 20.9999 11.4469 68.7791
476 1 24.8053 12.1219 68.1239
6954 1 24.7338 7.81491 67.838
4324 1 24.7414 9.90988 69.7526
5920 1 26.6994 7.73646 69.3935
3594 1 26.2534 9.71598 67.7243
4322 1 25.4838 7.91669 71.7674
7032 1 26.2939 12.1198 69.8791
4403 1 26.6134 9.70261 71.8865
5122 1 28.4786 7.96802 71.5537
4463 1 31.9342 8.55721 68.1923
5208 1 30.096 9.89189 71.6005
3411 1 30.4596 7.66504 69.8796
5128 1 28.5061 9.51097 69.6633
1117 1 29.7381 10.0346 67.4788
7109 1 30.9753 9.85397 69.6961
1899 1 27.7481 11.6465 67.9515
5922 1 32.2097 8.35262 71.5996
561 1 33.9538 9.81365 71.5315
5274 1 35.6774 8.39898 71.9313
3514 1 33.7451 9.88374 68.1373
4236 1 35.4385 8.17951 67.9206
6239 1 33.909 7.94823 69.9066
6721 1 35.4955 9.74569 69.9813
5924 1 33.7272 11.387 69.8301
6802 1 35.6919 11.6618 71.8446
234 1 35.4082 11.7226 68.1006
1029 1 2.46531 11.8501 68.441
7682 1 2.39395 15.0073 71.458
6883 1 0.906059 13.1928 71.8043
7604 1 2.54483 15.6154 67.9574
1194 1 2.39599 13.3214 69.9283
3840 1 0.695909 13.5968 68.2178
6163 1 0.83254 15.6159 69.5248
7493 1 6.33612 15.0805 71.3934
6242 1 32.1175 22.5426 71.6733
1996 1 4.27828 13.4385 68.2255
7643 1 6.39193 13.6978 69.528
867 1 6.40642 15.2502 67.9334
6881 1 4.27703 15.2687 69.767
6957 1 10.3485 15.1643 72.0673
7033 1 8.28936 12.1134 69.3522
404 1 8.29742 15.4401 69.6805
5196 1 10.0532 11.7514 67.6787
3587 1 8.57532 13.8155 67.847
1282 1 10.1798 13.754 70.0689
6159 1 10.2217 15.5667 68.306
4631 1 8.20175 13.5154 71.7618
1283 1 12.1038 13.4101 71.5523
7745 1 14.2508 11.2493 68.2594
5335 1 11.554 13.664 68.1172
2081 1 13.8358 13.3233 69.4831
4389 1 14.0463 15.0897 67.8101
2082 1 14.0991 14.9568 71.5971
1433 1 12.6472 15.1364 69.7304
2164 1 15.4755 15.3478 69.6688
2883 1 19.4732 13.6801 71.8534
2083 1 15.6311 13.3713 71.9109
2963 1 17.4749 15.2478 71.765
3684 1 19.1804 13.4601 68.0992
7111 1 16.9933 13.5537 70.1678
3761 1 19.0599 15.0171 69.7504
3038 1 17.3895 15.3312 68.0305
1270 1 23.2855 11.8143 70.127
3683 1 23.0845 13.9257 71.7545
5677 1 20.9415 13.5182 70.1523
1435 1 21.167 15.716 68.4975
3678 1 23.005 15.7389 70.0211
3601 1 21.5062 11.9418 71.8307
3682 1 21.3092 15.4353 71.5377
4402 1 24.8559 11.3631 71.8617
4482 1 24.6669 15.5975 71.4878
4483 1 26.5604 13.9234 71.6862
5198 1 24.3991 13.8543 69.9217
2946 1 26.3149 15.5917 69.8938
5598 1 28.2361 13.464 70.342
5283 1 30.3259 13.6378 71.736
4959 1 31.7211 11.516 68.1853
2370 1 29.9502 11.8181 69.695
5281 1 27.9425 11.5022 71.6737
5282 1 28.521 15.6259 71.3992
6144 1 29.8307 13.4251 68.106
5284 1 30.2445 15.1672 69.785
6081 1 32.0677 13.5739 69.8858
5203 1 31.7797 15.3199 67.8918
6082 1 32.0623 15.3653 71.6868
6878 1 32.0225 11.4434 71.2755
2552 1 33.2641 25.7916 54.998
6865 1 35.4241 15.1385 68.1849
2222 1 33.8097 13.5971 68.0239
7681 1 35.5449 13.5426 69.7014
6084 1 33.6595 15.2826 69.772
6083 1 33.9077 13.351 72.0076
6553 1 0.777571 17.4188 67.7428
236 1 2.55231 17.2475 69.8287
5673 1 2.8248 19.0333 67.8679
7037 1 0.708011 18.9585 69.7746
6963 1 0.69637 16.8745 71.6241
7762 1 2.45511 18.8842 71.7476
7039 1 6.21557 18.7275 67.9325
6547 1 4.63199 17.0662 68.0023
402 1 6.1887 17 69.923
6529 1 4.33856 18.8441 69.8759
7763 1 4.43045 16.9072 71.5423
562 1 5.98512 18.8639 71.6277
482 1 8.51484 17.2831 71.7021
2721 1 8.01217 18.7832 69.9287
2071 1 8.1143 17.1072 68.2632
710 1 10.3372 16.7858 70.0827
7994 1 10.1258 19.0484 67.8697
5265 1 34.3038 8.06093 54.0043
1443 1 13.8596 18.864 71.5938
5587 1 11.7796 16.9557 68.0365
7418 1 11.6204 18.8742 70.139
2888 1 14.0939 17.095 69.9208
3041 1 13.6335 18.7089 68.3546
939 1 15.8968 17.3989 67.7048
2962 1 17.3897 18.9749 71.9053
2163 1 15.6292 19.1522 69.8178
2882 1 15.9167 17.2783 71.7024
2773 1 19.1423 17.2204 68.1406
2964 1 17.5592 17.1034 70.0945
2884 1 17.5913 19.0152 68.1088
221 1 18.9344 19.1167 69.9825
3762 1 19.546 17.4778 71.803
3763 1 22.7958 17.2207 71.879
3043 1 20.9858 19.5653 71.5706
1599 1 22.8148 17.2722 67.8968
1734 1 21.0005 17.413 69.9806
1354 1 22.8968 18.851 69.7904
2961 1 21.3937 19.2012 68.0632
4562 1 24.4589 19.0103 71.6442
2310 1 24.6321 17.248 69.9488
5363 1 26.0316 17.1767 67.6055
5364 1 26.6289 19.2973 69.6481
4636 1 24.665 19.134 68.3246
4563 1 26.3865 17.3261 71.8037
5202 1 28.4679 15.7602 68.1778
6319 1 28.0402 18.8774 67.8007
5362 1 28.0385 17.3322 69.9242
2227 1 30.1347 17.3703 68.4005
314 1 29.6335 18.8603 70.2287
4638 1 32.1942 17.7047 69.618
6161 1 30.4636 17.1843 71.5149
5357 1 28.0488 18.9319 71.8043
5351 1 31.9415 19.1886 71.6638
7972 1 32.0607 19.1711 67.6203
1737 1 17.6965 23.8963 53.9701
4878 1 35.9135 17.2108 69.4498
6164 1 35.6106 19.0251 68.0113
1594 1 34.1868 16.9346 68.238
7494 1 33.6585 19.3843 69.5994
6962 1 35.7674 19.1806 71.6024
5277 1 0.589513 20.7561 67.9759
7043 1 2.72777 22.6271 71.3795
7841 1 2.48046 20.6921 69.6873
7502 1 2.68885 22.5193 68.2601
7914 1 0.675841 22.3849 69.7737
7047 1 0.802136 20.7451 71.6756
4948 1 35.4879 22.4864 68.004
644 1 6.34226 22.5749 71.5437
477 1 4.45368 20.9105 67.9436
7574 1 6.36037 22.6447 67.8884
7843 1 4.24061 20.7315 71.4697
7757 1 6.29478 20.6361 69.532
725 1 4.71594 22.7163 69.6011
7809 1 7.87272 20.9587 67.8484
2873 1 8.12265 22.3299 70.0334
643 1 8.08554 20.6189 71.8928
2158 1 9.89371 20.3718 69.9853
4074 1 10.0663 22.0911 68.3935
1442 1 9.89501 22.5421 71.7975
718 1 11.5175 22.0817 70.0818
1368 1 11.6521 20.5743 71.8819
235 1 11.663 20.8198 67.7407
1836 1 13.1645 22.8388 68.2049
1505 1 13.5158 20.9442 69.7188
3042 1 17.498 22.8238 71.7527
2533 1 15.5521 20.933 68.3374
3908 1 15.8845 23.0856 70.0596
2693 1 26.7757 32.9129 54.0789
5495 1 17.2868 22.9141 67.9047
2162 1 17.7181 21.1467 69.9846
7743 1 19.2008 20.8696 67.9972
4789 1 18.9743 23.075 69.6503
3044 1 18.959 20.8564 71.7797
4150 1 20.9693 22.5281 67.5163
2881 1 22.9746 20.9954 68.2872
6311 1 20.8104 21.1585 69.6762
3118 1 23.014 23.0397 70.3644
3842 1 20.7489 22.4714 71.679
3843 1 22.9201 20.9838 71.2868
4082 1 24.7395 33.3999 71.9771
4643 1 26.668 20.6449 71.785
5582 1 24.616 22.8056 68.3956
7204 1 24.7841 21.1182 69.9608
6710 1 26.6944 21.3549 68.3238
77 1 26.7854 23.0552 70.0947
2720 1 28.177 21.0835 70.242
3835 1 28.5547 22.5302 68.3422
3427 1 29.6558 20.331 68.0942
1269 1 30.221 22.6974 69.7472
7333 1 32.1081 22.7992 68.2012
5443 1 30.0197 21.2607 71.7831
6243 1 33.82 20.9314 71.742
2323 1 15.3069 24.5667 71.918
6241 1 31.6621 20.895 69.6812
4396 1 33.6759 20.8654 67.708
1516 1 35.5465 20.705 69.7122
6244 1 33.828 22.5795 70.0383
7042 1 35.7427 22.8545 71.6212
7918 1 2.65246 26.0982 68.487
7123 1 0.906375 24.3834 71.5537
7267 1 0.569653 24.3752 67.8157
7921 1 2.63779 24.4219 70.2403
5731 1 0.694116 26.1829 69.6032
7922 1 2.76903 26.2315 71.5587
6403 1 0.630234 27.9358 71.5635
722 1 6.33377 26.0128 71.9291
2326 1 11.708 28.0137 72.0241
7842 1 4.83136 24.3651 71.1804
880 1 6.1841 26.2932 68.3261
721 1 4.47009 26.5594 70.0991
2240 1 6.60834 24.428 69.5933
7924 1 6.21989 28.0312 70.0402
723 1 7.93245 24.3274 71.6882
7844 1 8.31631 24.018 67.9056
724 1 7.81484 26.1937 69.9183
1100 1 10.0023 26.2086 68.1123
1439 1 10.0655 24.359 70.1218
3122 1 19.5504 27.939 71.7171
801 1 10.1856 27.6799 70.0428
6557 1 13.5382 26.1697 68.3206
6867 1 11.7142 24.4139 67.9312
4404 1 28.5314 33.6383 68.5094
1843 1 15.7189 2.4749 71.8637
1524 1 11.8236 25.8733 69.9298
1674 1 13.8798 24.4137 69.7874
4797 1 15.4915 26.2234 70.5191
1364 1 15.6216 25.0003 68.3447
470 1 22.2274 33.201 54.6946
3123 1 19.4436 24.5112 72.136
1027 1 16.4622 27.1366 68.1353
7996 1 30.8925 9.81199 54.864
2671 1 16.8288 21.2538 53.9087
6554 1 17.1995 24.7799 70.3368
4316 1 18.6453 24.9705 67.7437
951 1 19.2114 25.6261 70.0568
3923 1 23.2806 24.5258 71.9519
3921 1 21.005 24.0455 69.8823
366 1 21.0467 25.9334 68.0253
3200 1 22.7518 24.2632 68.132
3201 1 22.4505 26.336 70.3075
7879 1 17.1794 0.777035 54.1178
3828 1 22.9327 28.0576 68.1961
4722 1 24.6214 26.5187 72.1432
4723 1 26.748 24.2891 72.1468
2795 1 24.731 26.113 68.3548
1015 1 26.5644 24.6923 68.2791
2469 1 24.8249 24.5401 69.9923
2551 1 26.5297 26.21 70.4059
4163 1 26.6931 35.3951 71.5932
4872 1 28.3019 25.9653 68.3368
7107 1 30.3377 24.6467 67.9213
4233 1 28.6448 24.4805 70.0097
4121 1 30.1575 26.5004 69.9744
5523 1 32.0512 24.3771 69.8821
50 1 32.458 26.263 68.4546
6391 1 28.5794 35.3795 70.0044
7122 1 35.7464 26.4118 71.7182
6322 1 32.1486 26.0797 71.4662
6545 1 33.7906 24.2304 68.0922
4240 1 35.5338 25.8758 67.8018
5441 1 36.0098 24.3457 69.8811
6324 1 34.1479 26.1651 70.0234
1755 1 34.0749 28.2291 67.7466
6323 1 33.9763 24.4429 71.566
714 1 1.25003 27.9595 68.4153
7201 1 2.50894 28.0015 70.2869
2529 1 2.35182 30.917 68.2209
7198 1 0.242343 30.0497 69.3378
7202 1 2.27188 29.7291 71.788
7571 1 0.346318 32.0062 68.4475
7199 1 2.35218 31.4068 70.2281
217 1 5.84303 29.5994 68.2926
1603 1 15.9086 28.1812 71.7985
7284 1 3.62975 28.7892 67.9983
1896 1 4.18138 29.5933 69.9797
7283 1 4.42527 31.536 71.6217
81 1 5.82395 31.4121 69.9043
7508 1 4.40612 31.5238 67.5303
2557 1 8.09872 27.7005 68.1376
6955 1 25.8209 9.6734 54.4723
79 1 8.30699 29.8095 69.6618
6162 1 33.9882 17.161 71.2559
7516 1 9.89251 29.8773 67.7214
3202 1 21.0936 29.6714 72.1273
881 1 10.3359 31.5955 70.5654
53 1 7.76871 31.3978 68.3538
2634 1 15.4763 29.1499 67.3262
7836 1 13.5057 27.8581 69.9996
804 1 11.6335 29.8112 69.8919
1432 1 16.4072 10.1141 54.0664
7264 1 13.564 29.867 68.3985
1602 1 13.7209 30.0106 71.0378
883 1 12.3319 32.481 71.8808
1681 1 12.7237 31.8328 69.5917
959 1 17.8752 29.5345 67.7894
3918 1 18.7058 27.2001 67.9307
1604 1 15.6503 28.7757 69.6375
1683 1 15.3843 31.5727 71.9299
1191 1 19.9769 32.9759 68.1541
4078 1 17.8559 27.8702 70.2022
3117 1 17.6952 29.6312 71.6321
1923 1 16.2402 5.65579 71.7545
2403 1 19.2342 30.165 70.1521
3283 1 22.886 31.8006 71.9268
716 1 19.8974 30.4957 68.1931
3663 1 22.6701 32.4523 67.9732
7517 1 20.2743 28.002 69.46
3204 1 22.762 30.0601 69.9414
3281 1 21.1182 31.8544 70.0098
7683 1 4.5219 13.3691 71.6316
3203 1 22.9826 28.0337 71.8497
1111 1 24.6937 29.336 68.7193
6621 1 26.5242 27.6985 68.6758
7648 1 16.2937 34.4939 54.8635
4083 1 24.6236 31.5885 70.2584
4001 1 24.5992 27.9712 70.2716
2468 1 26.5422 31.7176 68.4367
4801 1 26.7134 30.0633 70.0434
4003 1 26.6119 27.9164 72.0256
4803 1 30.3927 28.1688 72.2418
4448 1 31.4965 29.9946 68.1116
4629 1 29.9991 31.5945 68.4388
3279 1 30.452 27.8145 68.1063
5666 1 28.5069 25.9112 71.883
4004 1 28.2951 31.9354 70.0682
4077 1 28.6082 29.7146 68.3301
7029 1 27.9532 27.9247 70.3512
3914 1 30.1173 29.9412 70.4603
5682 1 31.9219 31.5934 69.9477
6401 1 35.6451 28.0524 69.6727
7196 1 32.2296 28.3873 69.88
5763 1 33.5622 32.0234 71.9389
6481 1 35.4066 32.2816 70.2251
7909 1 35.4174 30.8339 67.5704
2544 1 33.853 29.9697 69.6339
4877 1 29.8942 33.5062 70.4287
5602 1 32.0281 30.1143 71.8378
6402 1 35.408 30.018 71.5455
702 1 2.39015 35.5051 69.679
6483 1 0.755585 32.0497 71.7541
6563 1 0.578146 35.5927 71.934
73 1 0.850115 35.4964 67.7983
7281 1 0.726909 33.7968 69.8049
6630 1 2.40518 33.3931 68.237
945 1 4.15926 35.5952 68.1614
2477 1 6.04885 33.4621 68.6301
7431 1 5.81081 35.6724 70.0404
82 1 4.03683 33.2043 69.9852
5521 1 30.1158 35.8039 67.9507
1842 1 13.7965 4.30348 71.6704
164 1 7.83753 0.346375 69.3821
961 1 9.80705 35.1421 69.0665
163 1 7.91198 35.4568 71.3132
2542 1 10.5094 32.209 68.4886
7040 1 8.39292 13.2846 54.9554
7439 1 8.26483 33.2952 69.7683
1682 1 14.3362 33.6715 71.9274
1808 1 22.1258 7.62449 54.4262
5085 1 15.0192 33.0578 67.9563
1762 1 14.3185 35.4545 70.0052
4616 1 11.9163 34.1741 70.0009
3364 1 19.2204 35.4207 67.9994
4802 1 28.5956 29.8961 72.0339
1522 1 9.90092 26.0295 71.7479
473 1 15.9707 -0.484254 68.5742
4510 1 35.2578 29.8893 54.4071
2482 1 18.9417 33.5184 70.4351
1684 1 15.9809 33.3493 70.2893
4054 1 17.5622 34.1239 68.8127
4798 1 17.4151 31.5199 69.82
2484 1 17.4736 35.5744 70.4399
2 1 6.38702 29.5772 71.5534
3519 1 21.7498 34.2077 66.5822
6704 1 22.8629 35.1288 68.271
3361 1 21.1625 34.8122 69.9641
4081 1 22.8734 33.5897 70.322
4882 1 26.3588 31.5472 72.0922
4881 1 28.2368 33.0516 72.2817
4313 1 26.6224 35.3375 68.6785
4084 1 26.5254 33.64 69.9681
6437 1 17.1145 6.77641 54.3804
2242 1 13.943 22.6837 71.487
6396 1 24.6458 33.7255 68.7785
1677 1 24.7003 35.418 70.5868
4883 1 30.1118 31.6756 72.0463
5032 1 31.6102 33.9338 68.2501
882 1 10.1631 33.8784 72.1258
6882 1 35.5534 15.3471 71.2165
162 1 4.07842 35.1049 71.4899
5603 1 33.73 28.0731 71.6275
4002 1 24.9004 29.8106 72.0897
2243 1 15.7364 21.1127 71.7347
1845 1 14.0402 0.45867 71.8407
802 1 9.92081 29.6739 71.7874
963 1 12.4079 35.2007 71.8715
2322 1 13.5714 26.472 71.9346
83 1 8.18421 31.2925 71.689
7363 1 6.14697 33.7846 71.5021
2483 1 19.2289 31.819 71.9776
4968 1 31.7099 33.585 72.1182
5041 1 28.4582 0.616747 72.2496
1486 1 9.54846 14.997 54.0018
7180 1 22.5601 0.723539 53.9862
7175 1 30.1436 7.99619 53.9786
4955 1 16.3905 30.5149 54.0061
7813 1 10.8228 31.2336 54.0982
853 1 18.992 10.9936 53.9124
