ITEM: TIMESTEP
500000
ITEM: NUMBER OF ATOMS
8000
ITEM: BOX BOUNDS pp pp pp
-5.8674182434459254e-01 3.6136740824347577e+01
-5.8674182434459254e-01 3.6136740824347577e+01
-1.1734836486891851e+00 7.2273481648695153e+01
ITEM: ATOMS id type x y z
6647 1 2.68366 0.46501 1.17621
6645 1 0.860561 0.582191 -0.717913
6646 1 1.05556 2.43999 0.763403
6649 1 0.468567 0.932398 2.96559
6731 1 2.3914 2.63378 2.88584
6648 1 2.67132 2.38906 -1.13097
6652 1 4.28377 2.44312 1.22068
7445 1 4.42121 0.467395 -0.974853
7447 1 5.76218 0.353155 1.20242
7449 1 4.18131 0.303821 3.05963
7448 1 6.16231 1.88845 -0.508557
7452 1 5.83808 2.11994 3.02642
245 1 7.81487 0.551222 -0.214086
246 1 8.1848 2.51744 1.2567
249 1 7.8549 0.362354 2.57553
247 1 9.97456 0.353242 1.05501
252 1 9.68423 2.30127 2.87646
248 1 9.79554 2.02369 -0.506665
1046 1 11.8214 2.58577 1.26932
1045 1 11.8142 0.610597 -0.780278
1047 1 13.5102 0.85981 1.10754
1846 1 15.6544 1.92406 1.32359
1048 1 13.6548 2.40027 -0.673657
1849 1 15.8315 0.777946 -0.643268
1052 1 13.5882 2.27927 2.84643
1049 1 11.5635 0.516422 2.76072
1770 1 15.5418 0.412563 3.21096
1848 1 17.4082 2.56697 -0.520305
1847 1 17.54 0.529536 0.978344
2645 1 18.9551 0.533539 -0.81628
2646 1 18.9826 2.5103 1.29752
2649 1 19.1905 0.531804 2.58241
1852 1 17.0986 2.47786 3.03398
2647 1 20.902 0.336796 0.972283
2723 1 20.9384 2.48137 -0.365094
3446 1 22.4597 2.09123 1.41772
3445 1 22.7106 0.581301 -0.698107
3449 1 22.5933 0.536884 2.97033
2652 1 20.7443 2.52304 3.0734
3447 1 24.3669 0.0494544 1.32355
3448 1 24.1582 2.52757 -0.359016
4246 1 26.343 2.27898 0.748111
4245 1 26.2445 0.0264196 -0.405537
3452 1 24.6747 1.79532 2.76149
4249 1 26.593 0.175238 2.61159
4252 1 28.1205 1.99847 2.81132
5045 1 28.5379 0.283532 0.800712
4247 1 28.7225 2.17516 -0.720582
6968 1 2.43062 17.1818 -0.491067
5046 1 30.1211 2.36329 1.17826
5049 1 30.0601 0.632602 3.05005
5048 1 32.1392 2.16032 -0.721413
5052 1 32.1399 2.43302 2.73147
5047 1 31.712 0.70566 1.13541
5848 1 35.8575 2.38278 -0.575715
5845 1 34.1234 0.859244 -0.348013
5846 1 35.6829 0.645643 1.27814
5849 1 34.0415 2.40525 1.15493
4321 1 33.7219 0.812315 3.3016
5852 1 35.6517 2.68282 2.94258
6727 1 2.41544 4.6494 1.02727
6726 1 0.752194 6.21648 0.748137
6725 1 0.510074 4.25599 -0.930314
328 1 9.80897 5.9202 -0.638997
7530 1 2.80453 5.97514 2.64347
6729 1 0.798395 4.35312 2.83208
7525 1 4.47132 4.62802 -0.326288
7526 1 4.25693 6.46915 0.921313
7527 1 6.13439 3.97501 1.07691
7532 1 6.15199 6.16581 2.80391
7528 1 6.72653 5.87588 -0.379039
7446 1 4.52415 4.39767 2.78793
329 1 7.66892 3.81279 3.07346
326 1 8.16731 5.76452 1.37368
327 1 9.98724 4.20471 1.3016
4962 1 30.4797 0.427365 -0.964662
332 1 9.97438 5.91445 3.66699
325 1 8.19117 3.9341 -0.480627
1126 1 11.5746 5.58563 0.982061
1129 1 11.576 4.22033 2.95455
1125 1 12.1067 3.8993 -0.520658
1127 1 13.5058 4.09789 1.32589
1926 1 15.5224 6.22222 1.16916
1132 1 13.5157 6.00352 2.90296
1128 1 13.9425 5.76899 -0.679837
1925 1 15.4569 4.00883 -0.798573
1929 1 15.5574 4.38888 2.82128
1927 1 17.2494 4.36896 1.32302
2726 1 18.9196 5.72366 1.61811
1932 1 17.1285 6.18602 2.98796
1928 1 17.1529 5.87382 -0.575064
2725 1 18.9636 4.22642 -0.387788
2727 1 20.7797 4.28319 1.26054
2728 1 20.5967 6.14316 -0.428937
3525 1 22.5123 4.2935 -0.619888
3526 1 22.7562 6.04654 1.09911
3529 1 22.9645 4.0817 2.70698
2732 1 20.7134 5.76861 2.95004
4325 1 26.7941 3.71513 -0.863586
3527 1 24.6422 4.0363 1.22233
3528 1 24.657 5.96956 -0.724433
4326 1 26.701 5.78643 0.882509
4329 1 26.5762 3.92797 2.69291
3532 1 24.6134 5.80911 2.85403
4327 1 28.2692 3.97909 1.19027
4332 1 28.1754 5.92059 2.9451
5126 1 30.168 5.91322 0.405568
5129 1 30.2142 3.87209 3.05156
5127 1 32.1086 4.23209 1.19406
5132 1 31.5051 6.17987 2.43218
5125 1 30.487 4.16576 -0.772034
5207 1 31.6798 7.91843 1.0954
4328 1 28.1757 5.87594 -0.976173
6003 1 32.1761 6.13291 -0.50737
5925 1 33.7268 3.99494 -0.730304
5926 1 33.8931 6.18124 1.38483
5927 1 35.8548 4.25312 1.1293
5932 1 35.5811 6.2896 3.15212
5928 1 35.5554 6.14248 -0.418158
5929 1 33.8697 4.2686 2.92555
6806 1 0.609699 9.82243 1.22177
6805 1 0.331084 7.87384 -1.05835
6809 1 1.00433 7.85571 2.48667
6732 1 2.41413 8.05026 0.575107
6812 1 2.71183 9.68873 2.99526
6808 1 2.38651 10.073 -0.679035
7605 1 4.49583 8.17539 -1.10651
7606 1 4.23033 9.7163 0.929167
7607 1 6.57667 7.87512 1.36396
7608 1 6.39117 9.93199 -0.447439
7612 1 5.99785 9.75304 2.73593
7611 1 4.18966 7.7251 2.56854
409 1 8.12108 7.63317 3.15271
405 1 7.7331 7.84175 -0.454177
406 1 8.00166 9.61862 1.32162
407 1 9.7924 7.91467 1.04831
408 1 9.81238 9.78138 -0.493667
412 1 9.69261 9.73197 2.83765
489 1 8.26827 11.654 2.93683
2005 1 15.3897 7.82389 -0.572522
1209 1 11.7624 7.91915 2.62053
1205 1 12.0065 8.23003 -0.639242
1208 1 13.4881 10.1733 -0.540816
1206 1 11.4514 9.98575 1.48725
1207 1 13.386 7.86143 1.11743
1212 1 13.4705 9.89927 3.3996
2085 1 15.3243 11.843 -0.427503
1287 1 13.7594 11.5869 1.47793
2007 1 17.4107 8.11912 1.06898
2809 1 18.8136 7.83337 3.26814
6641 1 14.961 9.56922 0.985971
2009 1 15.0727 7.94582 2.99217
2805 1 18.9995 7.90486 -0.666197
2806 1 19.2561 9.64134 1.33881
2012 1 16.6639 9.73095 2.95539
2008 1 17.0332 9.84319 -0.482145
2889 1 19.2924 11.403 3.10432
2807 1 20.7083 7.66394 1.58229
2808 1 20.8857 9.79164 -0.502982
3605 1 22.7222 8.18948 -0.334372
3606 1 21.9643 9.66069 1.6254
2887 1 21.0818 11.8258 1.63067
3602 1 22.6901 11.7751 -0.189742
2812 1 21.0005 9.55289 3.62169
3609 1 22.7136 7.54143 2.87053
3608 1 24.4729 9.89317 -0.623309
3607 1 24.5223 7.75009 1.10424
4406 1 25.9216 9.57657 1.62079
4405 1 26.4943 7.58754 -0.678265
4409 1 26.4052 7.6554 3.17619
3687 1 24.3537 11.5538 1.4009
4489 1 26.2883 11.4596 2.9228
4485 1 26.2195 11.4796 -0.246266
3612 1 24.0699 9.62564 2.90941
4408 1 28.0152 9.44006 -0.64293
4407 1 27.9968 7.86396 1.01765
5205 1 29.8002 7.92742 -0.771093
5206 1 29.8498 9.49393 1.09247
5212 1 32.1346 9.59817 3.11622
6002 1 32.1964 9.80703 -0.708268
4412 1 27.9195 9.53353 3.29523
5209 1 29.8577 7.68074 3.331
4487 1 27.9654 11.0267 1.4419
5287 1 31.574 11.4442 1.20019
5289 1 29.7591 11.3603 2.8322
5285 1 29.4963 11.2106 -0.124151
6005 1 33.7875 7.97005 -0.534264
6007 1 35.8001 8.0064 1.22818
6006 1 33.6037 9.70854 1.37601
6008 1 35.4103 9.6743 -0.358386
6012 1 35.4001 9.67105 3.00248
6009 1 33.6338 7.78089 2.97533
6089 1 33.6337 11.6927 2.69251
6885 1 0.515355 11.6065 -0.596824
6889 1 0.524332 11.6354 2.85884
6887 1 2.47981 11.7142 1.55815
6888 1 2.51622 13.5009 -0.691989
6967 1 0.938665 13.3199 1.05743
7766 1 2.6337 15.2668 1.07367
6969 1 0.736448 15.2416 2.91721
6892 1 2.43177 13.6221 2.70043
3829 1 0.719901 15.4707 -0.756017
7685 1 4.71783 11.5453 -0.306587
7687 1 6.56722 11.9101 1.12075
7689 1 4.46895 11.8309 2.51718
6886 1 4.36517 15.2851 -0.615039
7686 1 4.23566 13.5094 0.924409
7688 1 6.19273 13.7752 -0.323144
7767 1 6.23253 13.5981 2.74856
7765 1 6.18018 15.4227 1.21402
485 1 8.11391 11.7299 -0.812218
487 1 9.73371 11.76 1.03377
569 1 7.9709 15.67 3.50753
486 1 8.24725 13.7338 1.11889
488 1 10.021 14.1763 -0.616972
567 1 9.85261 15.4832 1.36591
565 1 8.13572 15.7368 -1.07069
492 1 9.3262 13.5609 3.01481
1289 1 11.3633 11.8753 3.13049
3788 1 24.326 17.1449 17.4271
1286 1 11.5946 13.6976 1.45642
2006 1 15.467 11.8243 3.18756
563 1 11.6879 15.8208 -0.649711
2086 1 15.4055 13.5137 1.31076
1292 1 13.2782 13.4188 3.1568
1288 1 13.513 13.7002 -0.174171
1367 1 13.3862 15.4315 1.12264
2165 1 15.1524 15.3923 -0.378817
2169 1 15.0402 15.2875 3.01748
2087 1 17.0572 11.4895 1.47328
2885 1 18.9163 12.0398 -0.381198
2886 1 18.982 13.4676 1.35316
2092 1 17.2472 13.2745 3.16999
2965 1 19.194 15.5817 -0.424784
2167 1 16.7594 15.5524 1.53119
2969 1 18.3959 15.4489 3.07112
2088 1 17.3016 13.4831 -0.397947
3689 1 22.3269 11.6978 3.58706
3685 1 20.8199 13.4676 -0.188351
3686 1 22.8434 13.3821 1.88943
2892 1 20.7043 13.5164 3.04908
2967 1 20.7213 15.5836 1.45686
3769 1 22.6726 15.3373 3.26349
3765 1 22.657 14.8803 0.037567
3688 1 24.4193 13.3807 -0.255993
4486 1 26.1229 13.4707 1.44432
3692 1 24.5403 13.5599 3.6518
3767 1 24.7377 15.3119 1.72878
4569 1 26.549 15.3376 3.34694
4567 1 28.2639 15.1789 1.04751
4488 1 27.8299 13.0812 -0.478174
4565 1 26.4677 15.2093 -0.258472
4492 1 28.1 13.351 2.74228
5286 1 30.2215 13.1596 1.0959
5288 1 31.8574 13.759 -0.690806
5365 1 30.1699 15.5429 -0.248054
5292 1 31.5286 13.3442 2.82872
5367 1 31.6892 15.0393 1.12176
5369 1 29.6955 14.902 3.01641
6087 1 35.6824 11.7734 1.08331
6085 1 34.0217 11.5615 -0.83536
6086 1 33.7161 13.5123 1.09694
6088 1 35.4835 13.6408 -0.539869
6092 1 35.4723 13.5709 3.0785
6167 1 35.7529 15.2605 1.16731
6165 1 33.8071 15.3123 -0.658213
6169 1 33.5188 15.1302 2.82341
6966 1 0.528603 17.2739 1.19079
7850 1 2.75914 18.431 1.37396
6972 1 2.44816 16.8378 3.07742
6807 1 2.53913 5.88936 -1.00607
7045 1 0.226216 18.8415 -0.380662
7768 1 6.21586 17.5621 -0.384633
6965 1 4.66421 17.0614 1.38421
646 1 5.86394 19.4134 1.68545
7845 1 4.43137 18.9682 -0.338538
7847 1 6.24041 17.5367 3.07511
645 1 7.87877 19.1914 -0.244464
649 1 8.0402 18.9418 2.94021
566 1 8.01234 16.878 1.27473
647 1 9.84356 18.6482 1.14541
568 1 9.88785 17.275 -0.611076
1449 1 11.9187 19.085 3.14698
1366 1 11.5532 16.7544 1.1558
1445 1 12.0255 19.3285 -0.792458
2245 1 15.4378 18.9767 -0.70835
1365 1 13.5228 17.3216 -0.616183
2166 1 15.2549 17.372 1.15293
1447 1 13.494 19.1111 1.11173
2249 1 15.0631 18.9276 3.32877
2168 1 17.3649 17.0582 -0.161211
2966 1 18.8956 17.3401 1.79275
2247 1 17.289 19.1382 1.52245
3045 1 18.9306 18.9572 -0.66104
3049 1 18.9752 19.2601 3.20098
2172 1 16.7555 17.4597 3.39779
2968 1 20.6106 17.4627 -0.424822
3766 1 22.6561 17.6879 1.42604
3845 1 22.7384 19.2979 -0.365068
3047 1 20.7796 18.9745 1.37311
3849 1 22.8918 19.8527 2.77558
3847 1 24.8432 19.7732 1.28986
4566 1 26.5486 16.9402 1.39283
4642 1 26.2292 18.9016 -0.852494
3768 1 24.8065 17.1775 -0.821739
4645 1 26.3063 19.1507 3.11527
4572 1 28.4161 17.3762 3.1432
5368 1 31.9005 17.012 -0.582729
4647 1 28.1511 19.2223 1.15425
4568 1 28.0628 17.2314 -0.195012
5366 1 29.9759 17.168 1.33375
5447 1 31.9468 18.8061 1.22473
5445 1 30.241 18.6849 -0.374768
5449 1 30.2056 19.0423 3.16506
5372 1 31.6806 17.0514 3.0849
6245 1 33.7227 18.4935 -0.178266
6166 1 33.6721 16.9711 1.36552
6247 1 35.5537 19.2761 1.41499
6249 1 33.6873 18.732 3.01469
6172 1 35.9063 17.0412 3.07758
6168 1 35.7507 16.9097 -0.4072
7127 1 2.20399 22.7674 1.25559
7046 1 0.889019 20.682 1.26832
7125 1 0.342863 22.7544 -0.576406
7048 1 2.29344 20.9519 -0.479997
7129 1 0.674734 22.8143 3.48242
7925 1 4.26381 22.4803 -0.485468
7846 1 3.81288 20.8389 1.44874
7927 1 5.95337 22.3549 1.2087
7848 1 6.00581 20.7283 -0.45024
7131 1 4.25013 22.7274 3.21051
729 1 8.30776 22.6952 3.09344
648 1 8.32404 20.7773 1.70783
7923 1 7.97666 22.3359 0.125177
643 1 10.0011 20.7227 -0.553654
727 1 9.85028 22.9066 1.43119
652 1 10.2867 20.6967 2.96603
1529 1 11.6172 22.7452 3.14785
1446 1 11.6785 20.847 1.21312
1525 1 11.8216 22.565 -0.391512
2325 1 13.863 20.8889 -0.695317
2246 1 15.1127 21.0121 1.29082
1527 1 13.8456 22.6296 1.53343
2329 1 15.1993 22.9138 3.64554
1452 1 13.6663 20.769 3.41436
807 1 15.482 22.8998 -0.794937
2248 1 16.8772 20.7072 -0.420599
2327 1 16.7542 22.7103 1.35166
3046 1 19.0109 20.9054 1.15085
3125 1 18.9959 22.6784 -0.355307
2252 1 16.7945 20.9555 3.29246
3129 1 18.7515 22.6761 3.02448
3048 1 20.9418 20.8293 -0.79041
3127 1 20.656 22.6687 1.27356
3846 1 22.449 21.1388 0.928901
3925 1 22.5502 22.6752 -0.795695
3929 1 22.6433 22.5914 2.89522
3052 1 20.6215 20.939 2.82907
3848 1 24.7276 20.6196 -1.01615
3927 1 24.6598 22.4338 1.3448
3852 1 24.833 21.2795 3.37072
4646 1 26.6199 21.4736 1.41628
4725 1 26.4007 22.9334 -0.775712
4729 1 26.6804 22.8228 3.4101
4727 1 28.7792 22.5054 1.34886
5448 1 32.0093 20.6163 -0.607369
4652 1 28.1708 20.8254 3.39837
4648 1 28.0528 21.1331 -0.612024
5446 1 30.2731 20.6242 1.26664
5525 1 30.053 22.5128 -0.752573
5529 1 30.3419 22.5052 3.02165
5527 1 31.9123 22.496 1.0398
5452 1 32.1695 20.7487 3.11582
6325 1 33.75 22.6177 -0.613155
6248 1 35.3063 20.9225 -0.532773
6246 1 33.4665 20.6811 0.927157
6327 1 35.4483 22.7859 1.40193
6252 1 35.619 21.029 3.19698
6329 1 33.5436 22.6229 2.7378
7128 1 2.69616 24.5838 -0.700736
6407 1 2.29079 26.1918 1.27385
6405 1 0.516844 26.2567 -0.762762
7126 1 0.567488 24.3147 1.1964
6409 1 0.587827 26.5303 2.78241
7132 1 2.87261 24.7049 3.19228
6406 1 0.476119 28.465 1.43678
6412 1 2.30024 28.102 3.05185
7926 1 4.51726 24.4967 1.5503
7205 1 4.11327 26.4821 -0.606048
7928 1 5.82859 24.1696 -0.51912
7207 1 6.23662 26.3709 1.18195
7209 1 4.38082 26.6266 3.24107
7206 1 4.15147 28.0241 1.35473
9 1 7.64452 26.5518 2.96539
728 1 9.39466 24.4453 -0.49589
726 1 7.96994 24.6523 1.40644
5 1 7.48186 26.3598 -0.701792
7 1 9.92149 26.0731 1.30648
3 1 11.7034 26.1404 -0.655663
732 1 9.89203 24.6559 3.23902
806 1 11.6153 27.9166 0.917555
1526 1 11.956 24.6305 1.43283
1532 1 13.2955 24.7795 3.40244
1609 1 14.8651 24.5751 1.4107
805 1 13.5591 26.4843 0.993776
1528 1 13.453 24.3061 -0.578259
1605 1 14.9224 26.0309 -1.03767
1610 1 15.0266 26.6215 3.08966
808 1 13.492 28.3046 -0.476344
1607 1 16.6221 26.2375 0.924931
2328 1 17.2216 24.5309 -0.545873
3126 1 18.7357 24.7011 1.67105
2409 1 18.9474 27.0473 2.74226
2405 1 18.8848 26.3757 -0.208086
2332 1 16.9775 24.7235 3.37922
2407 1 20.6078 26.2326 1.3054
3128 1 20.7728 24.5112 -0.177938
3926 1 22.8443 24.0796 1.08829
3132 1 21.1476 24.396 2.80684
3205 1 22.5489 26.1119 -0.190452
3209 1 23.0949 26.3292 3.0255
3928 1 24.4312 24.3068 -0.629201
3207 1 25.0891 26.0601 1.33759
4726 1 26.3487 24.0579 1.28289
4005 1 26.3065 25.8185 -0.513099
3932 1 24.6556 24.1078 3.03097
4009 1 26.7166 26.0499 2.98967
4728 1 28.2514 24.3853 -0.35333
4732 1 28.5061 24.5789 2.96752
3212 1 24.6715 28.5608 3.04835
5528 1 32.0113 24.4434 -0.886904
4007 1 28.2919 26.2751 1.08923
5526 1 30.1677 24.9281 0.872245
4805 1 30.1423 26.5214 -0.620615
5532 1 31.8503 24.6239 2.65764
4807 1 31.7947 26.5003 1.31422
4812 1 29.9963 26.5123 3.17674
5605 1 33.7959 26.2593 -0.94109
6326 1 33.5598 24.6861 1.08
5607 1 35.5631 26.2434 0.923806
5609 1 33.6513 26.7923 2.6941
6328 1 35.3837 24.2524 -0.677129
6332 1 35.5163 24.5088 3.11324
6408 1 2.11749 28.2594 -0.174189
6487 1 2.16617 30.125 1.20507
6485 1 0.723519 29.99 -0.669763
6489 1 0.34357 29.9319 3.48705
6488 1 2.25712 31.8355 -0.843107
6486 1 0.574632 31.8056 1.23739
7285 1 3.9115 30.1395 -0.367002
7208 1 6.22129 28.2253 -0.666133
7287 1 6.05207 30.148 0.952954
7212 1 6.51625 28.5775 2.84387
7289 1 4.46321 29.9902 2.80594
7288 1 6.11096 31.8485 -0.627725
7286 1 3.92439 32.1073 1.13179
7292 1 6.08793 31.5658 3.3631
6 1 7.95882 28.3184 1.0677
8 1 9.76643 27.9465 -0.835821
12 1 10.0642 28.222 2.84123
85 1 8.29163 29.8592 -0.60466
87 1 10.0767 30.0335 1.22667
88 1 9.9042 31.7901 -1.13386
86 1 7.77885 31.6316 1.35974
89 1 8.33039 30.0646 3.2256
886 1 11.5353 31.9761 0.817666
1606 1 15.3515 28.2649 1.15552
803 1 11.7267 30.2927 3.01356
885 1 11.9947 30.1828 -1.44515
812 1 13.9469 28.6894 2.95938
887 1 12.8519 30.0701 1.11664
1689 1 15.5313 30.2004 2.46277
1685 1 15.0138 30.1367 -0.374918
1686 1 15.2868 32.2683 0.676461
892 1 13.5794 31.7095 2.77754
5599 1 31.7632 35.42 -0.487132
1285 1 11.7648 11.828 -0.146532
1612 1 16.8008 28.2543 2.9718
2406 1 19.3001 28.4829 0.751084
1687 1 17.1432 29.8916 0.842606
2402 1 19.2859 30.4147 -0.744534
2489 1 19.26 30.2181 2.46249
1688 1 17.6052 31.9948 -0.817778
2486 1 19.0129 31.7734 1.03643
1692 1 17.1044 31.5108 2.82493
3206 1 23.2457 28.0892 1.25124
2487 1 21.0925 30.1179 0.759742
2412 1 21.0012 28.2455 2.6535
3289 1 22.6688 30.1437 2.76718
3285 1 23.1241 29.8278 -0.404016
3286 1 23.1302 31.6605 0.990324
2492 1 21.025 31.9357 2.987
2408 1 21.2054 27.9317 -0.563627
4006 1 26.6652 27.8107 1.35075
3208 1 24.7436 27.8819 -0.34649
3287 1 24.9641 29.8065 0.987286
4085 1 26.3398 30.3271 -1.14248
4089 1 26.7135 30.0044 3.07917
3288 1 24.8761 32.0401 -0.932279
4086 1 26.4013 31.6156 0.945224
4092 1 28.0752 32.024 2.64088
4806 1 30.0725 28.0137 1.15521
5610 1 31.6973 28.1934 3.23662
4808 1 32.2295 28.2469 -0.910716
4008 1 27.9015 27.9326 -0.729632
4087 1 28.3421 29.8828 0.813156
4885 1 30.1796 29.6855 -0.936104
4887 1 31.7433 29.7605 1.1709
4088 1 28.5458 31.6357 -1.2226
4886 1 29.8846 31.4795 0.820937
4888 1 32.0544 31.5108 -0.566401
4892 1 32.0499 31.5935 3.23472
5606 1 34.0337 28.3452 1.16725
5608 1 35.6728 28.2522 -0.672375
5687 1 35.627 29.9226 1.41443
5685 1 33.8637 29.9829 -0.934833
5688 1 35.671 31.7153 -0.808761
5686 1 33.7559 31.4395 1.12558
5692 1 35.4913 31.6236 3.14661
5612 1 35.3287 28.2833 3.26766
6566 1 0.446002 35.7736 1.29873
6572 1 2.09663 35.665 3.22333
6567 1 2.44094 33.7117 1.67262
6565 1 0.34415 33.482 -0.57964
6569 1 0.390394 33.8537 2.9717
6568 1 2.26527 35.4278 -0.356161
6492 1 2.40022 31.2704 3.09757
7366 1 4.25843 35.2327 1.40545
7365 1 4.05485 33.768 -0.404298
7368 1 6.13107 35.5936 -0.702592
7367 1 5.97871 33.2173 1.03691
7369 1 4.4478 33.8271 3.5082
7372 1 6.27538 35.4077 3.06321
92 1 9.65771 32.0755 2.64708
166 1 7.89116 35.0603 0.981052
165 1 7.93381 33.4958 -0.722468
167 1 9.69759 33.5386 0.788264
168 1 9.55704 35.3979 -0.442983
169 1 7.7408 33.5086 3.30357
969 1 11.6244 33.5093 2.85877
172 1 9.69376 35.111 2.68714
966 1 11.7525 35.4549 1.00238
965 1 11.7946 33.8556 -0.937348
1766 1 15.5192 35.3434 1.30484
968 1 13.8537 35.8303 -0.561358
967 1 13.3916 33.9468 1.10141
5307 1 30.2977 11.3337 17.2143
1769 1 15.7797 33.6158 2.67858
972 1 13.4039 35.3958 3.2303
2565 1 19.0876 33.6132 -1.34607
2566 1 19.1221 35.5126 0.673023
1768 1 17.2499 35.7006 -1.25787
1767 1 17.2888 33.6949 0.700026
1772 1 17.6558 35.3173 2.34546
2569 1 19.1601 33.5965 2.82317
2488 1 20.8145 32.0832 -0.907366
2572 1 20.6581 35.17 3.08856
3365 1 22.918 33.3435 -1.0223
3366 1 22.6645 35.1656 1.31235
2568 1 21.1697 35.4077 -0.786827
2567 1 20.9416 33.8989 1.10848
3369 1 22.5371 33.6843 3.16069
3292 1 24.9027 31.5635 2.98053
4165 1 26.5728 33.7087 -0.981428
4166 1 26.6408 35.3715 1.12785
3368 1 24.3685 35.1201 -0.428585
3367 1 24.5648 33.5985 1.27323
4170 1 26.7664 33.6106 2.69589
3372 1 24.3951 35.3608 3.14171
2188 1 17.3829 16.8051 17.1774
4169 1 28.097 33.2855 0.779365
4167 1 30.2104 33.5361 -0.773049
4966 1 29.9009 35.1085 0.968461
4969 1 30.2514 33.3236 3.17994
4972 1 31.8577 33.1173 1.37777
5766 1 31.8965 35.1195 2.9171
4172 1 28.5681 35.2557 3.09459
4508 1 28.2429 13.342 17.0158
5847 1 35.7241 35.5575 -0.604861
2319 1 33.7074 35.4446 1.0474
5767 1 35.4122 33.735 1.25328
4967 1 33.7138 33.446 -0.428567
5772 1 35.344 35.9017 3.17528
5769 1 33.809 33.3124 3.30066
6651 1 2.52358 0.255749 5.15101
6653 1 0.363885 0.632349 6.39252
6650 1 0.698377 2.49295 4.76124
7454 1 2.33915 2.33285 6.51392
7453 1 4.53882 0.934163 6.84899
7450 1 4.01437 2.23157 4.80124
7451 1 5.9278 0.516364 4.86034
7456 1 5.93706 2.61873 6.56894
250 1 7.89762 1.59891 4.37359
253 1 7.91877 0.778856 6.49511
251 1 9.80536 0.559867 4.69378
256 1 9.9013 2.0895 6.43426
1053 1 11.5582 0.211427 6.58677
1050 1 11.726 2.21499 4.57825
1051 1 13.3785 0.371717 4.74099
1135 1 15.602 0.43654 6.7636
1850 1 15.2946 1.97665 4.9686
1056 1 13.2284 2.27871 6.50563
1851 1 17.2583 0.774974 4.77478
2653 1 18.9327 0.733101 6.64696
2650 1 19.1059 2.19746 4.65485
1856 1 17.1936 2.30681 6.57187
2651 1 20.8897 0.518236 4.85945
3453 1 22.811 0.994842 6.11202
3450 1 22.8067 2.49767 4.45944
2656 1 20.7571 2.62662 6.51855
3456 1 24.7929 2.43777 6.6338
3451 1 24.8004 0.188021 4.56831
4253 1 26.5684 0.666232 6.5029
4250 1 26.35 2.06527 4.74997
4251 1 28.2973 0.337771 4.56529
4256 1 28.3712 2.39231 6.57834
5053 1 30.1582 0.684002 6.23297
5050 1 30.3269 2.77422 5.16704
5051 1 32.0239 0.702893 4.76899
5056 1 32.34 2.24039 6.77686
5853 1 33.8305 0.404847 6.24803
5851 1 35.5668 0.974568 4.70128
5850 1 33.676 2.93156 4.92766
5856 1 35.5362 2.83762 6.53478
6656 1 2.47006 4.26053 4.45442
6736 1 2.65127 6.32168 6.51818
6733 1 0.992277 4.25251 6.31993
6730 1 1.0148 6.1589 4.43166
7533 1 4.15287 4.38334 6.55604
7529 1 3.99503 6.25724 4.55199
7609 1 6.0336 6.75133 6.73752
7531 1 5.96475 4.42345 4.87117
333 1 7.70775 3.00313 8.10202
330 1 7.4572 6.01095 4.7749
331 1 8.18974 3.94718 5.67898
336 1 9.69889 6.21161 6.51433
1133 1 11.4747 3.9272 6.2831
1130 1 11.5113 6.10735 5.08962
1131 1 13.8524 4.26203 4.66367
1930 1 15.3287 5.85219 4.73738
5604 1 13.6481 5.89669 6.25972
1933 1 15.2012 4.38467 6.62185
2729 1 18.6626 4.11633 3.16345
1931 1 16.8766 4.13233 4.79493
1936 1 16.9226 6.0603 6.61194
2733 1 18.9596 4.19963 6.30085
2730 1 19.3145 6.12086 4.96274
1935 1 16.8998 4.15674 8.46348
2731 1 21.0315 4.12908 4.75287
2736 1 20.5842 5.87394 6.80528
3533 1 22.7557 4.10142 6.60814
3530 1 22.7603 5.80675 4.67058
3531 1 24.8323 4.16602 4.78186
3536 1 24.7248 5.77189 6.4436
4333 1 26.7577 4.27082 6.66722
4330 1 26.7088 5.8071 4.74692
4331 1 28.3123 3.97306 4.78574
4334 1 26.3088 5.85421 8.50079
4411 1 28.0492 7.85528 4.89664
4336 1 28.2934 6.13496 6.74211
5133 1 30.0401 4.21803 6.93429
5130 1 29.9609 6.03569 4.89009
5131 1 31.8337 4.42384 4.80429
5136 1 31.8728 5.94869 6.79761
5933 1 34.1265 4.57643 6.61387
5931 1 35.822 4.24874 4.58656
5936 1 35.7403 6.41882 6.63625
5930 1 33.6734 6.22379 4.85942
6813 1 0.795381 7.97449 6.49523
6811 1 2.42206 8.27208 4.87862
6816 1 2.82411 10.1259 6.42859
6810 1 0.799698 9.87197 4.43767
6893 1 0.792277 11.3622 6.51681
7613 1 4.39464 8.38102 6.75655
7536 1 5.40562 8.18812 4.53159
7610 1 4.31073 10.2757 4.58108
7616 1 6.24448 9.95699 6.56548
7693 1 4.63996 12.0598 6.3148
410 1 7.90868 9.74881 4.64292
413 1 8.20187 8.03716 6.37326
411 1 10.2545 8.09648 4.64167
416 1 10.1603 9.69165 6.59072
1210 1 11.5968 10.02 4.60508
7691 1 8.16928 11.5517 6.49742
1136 1 11.9366 8.0792 6.68826
1291 1 11.9318 11.4499 6.80474
1211 1 13.3771 7.83336 4.71485
2010 1 15.3988 10.0929 4.98375
1216 1 13.4856 9.67224 6.27771
2013 1 15.1339 7.6719 6.38171
2089 1 13.616 11.8492 4.84729
2093 1 15.2435 11.7393 6.66329
2016 1 17.2832 9.80601 6.80168
2011 1 17.3161 8.42204 5.0278
2813 1 18.5631 7.61868 6.5591
2810 1 19.0661 9.88122 5.12533
2091 1 17.4448 11.5275 4.77092
2893 1 18.7908 11.618 6.8573
2811 1 21.0803 7.74844 5.34435
2816 1 20.8047 9.71541 6.58075
3613 1 22.891 7.12102 6.7336
3610 1 22.8467 9.18824 4.99997
3616 1 24.3825 9.18085 6.71265
3611 1 24.5656 7.39395 4.71722
4413 1 26.1616 7.63387 6.36838
4410 1 26.0446 9.44115 4.65171
4416 1 28.2306 9.50533 6.35611
3691 1 24.4383 11.0816 4.82198
4493 1 26.1739 11.9513 6.68507
5213 1 30.0994 7.90335 6.57457
5211 1 31.8121 7.69403 4.53166
5210 1 29.9269 9.91072 4.535
5216 1 32.0377 9.65415 6.76312
4491 1 27.8961 11.3897 4.83149
5293 1 30.0756 11.3208 6.64008
6010 1 33.886 9.85875 5.08764
6013 1 33.7597 7.95375 6.75533
6011 1 35.4777 8.02837 4.77962
6016 1 35.674 9.71081 6.71095
6093 1 33.4499 11.6664 6.96748
6091 1 35.7772 11.4871 4.59918
6891 1 2.4164 11.8917 4.65947
6896 1 2.57018 13.0983 7.13293
6890 1 0.401926 13.4476 4.51532
6973 1 0.762805 14.8364 6.71185
6971 1 2.41885 15.0674 4.82277
4961 1 4.39203 15.0783 2.77023
7692 1 6.25893 11.8423 4.56167
7769 1 4.12306 13.6847 4.67055
7696 1 6.20057 13.7289 6.70535
7772 1 6.01196 15.1044 4.77735
7690 1 4.26959 14.8789 6.93709
1369 1 11.7573 15.5348 3.19914
491 1 9.65556 11.0408 4.78203
7771 1 7.90925 13.4271 5.22317
490 1 9.53625 13.3814 6.82868
573 1 8.18412 15.4807 6.45671
571 1 9.83911 15.1409 4.71651
1290 1 11.5355 13.3277 4.86973
1373 1 11.5243 15.2998 6.62907
1296 1 13.4111 13.2841 6.87241
2090 1 15.528 13.5343 4.8133
1371 1 13.5049 15.1154 4.93432
2173 1 14.9314 15.3079 6.65478
2096 1 17.1864 13.734 6.82503
2890 1 18.8646 13.7094 5.1582
2171 1 17.0078 15.3103 4.9307
2973 1 19.0116 15.5309 6.80928
2891 1 20.4552 11.625 4.93162
3693 1 22.6297 11.3716 6.42003
2896 1 20.7445 13.6815 6.70783
3690 1 22.3236 13.5793 4.77344
3773 1 22.2541 15.3284 6.38725
2971 1 20.4036 15.4954 4.68465
3696 1 24.1698 13.5773 6.375
4490 1 26.7656 13.4588 4.74317
3771 1 24.4783 15.804 4.70316
4573 1 26.0428 15.1523 6.49821
4571 1 28.288 15.3607 4.93392
5291 1 31.8838 11.8268 4.80223
4496 1 28.1359 13.5644 6.77402
5290 1 29.9503 13.5185 4.91526
5373 1 29.9605 15.8464 6.62352
4575 1 28.1971 15.5162 8.33051
5371 1 31.7113 15.0242 4.43653
5296 1 31.8181 13.6824 6.83007
6090 1 33.4612 13.5552 4.91516
6096 1 35.4991 13.1845 6.46269
6171 1 35.7906 15.1639 4.99231
6173 1 33.9268 15.3446 6.47564
7049 1 0.693134 19.0872 3.32691
6976 1 2.7483 16.9798 6.6476
6970 1 0.679098 17.1274 4.8828
7053 1 0.520631 19.1875 6.45443
7051 1 2.44674 18.6425 4.96688
7849 1 4.3222 19.1455 3.72271
7853 1 4.43028 18.8852 6.46842
7770 1 4.15181 16.6866 5.00704
7776 1 6.05947 16.9 6.38729
7851 1 6.3139 19.0208 5.12883
572 1 10.1364 17.5955 3.37446
570 1 8.21276 17.5548 4.85003
653 1 8.20172 18.6628 6.9429
576 1 10.0872 17.0795 6.91067
651 1 10.1487 19.0336 5.3734
1370 1 12.1492 17.0408 5.1188
1372 1 13.561 17.0908 2.99766
1453 1 11.7066 18.9867 6.87326
1376 1 13.3746 17.0971 7.08432
2170 1 15.309 17.0226 5.0245
1451 1 13.6492 18.7313 4.96967
2253 1 15.3395 19.2238 6.7117
2176 1 17.0673 16.7984 6.5427
2970 1 18.6386 17.2026 4.74757
2251 1 17.1741 19.0009 5.22744
3053 1 18.8999 19.1396 6.45125
2972 1 20.8738 17.4413 3.2895
2976 1 20.4372 17.4965 6.66159
3770 1 22.5407 17.193 5.04688
3851 1 22.4954 18.9573 6.80189
3051 1 21.0884 19.1114 4.94633
3772 1 24.1982 17.5896 2.92384
3776 1 24.3176 17.031 6.66605
4649 1 24.4944 19.2154 5.193
4570 1 26.5326 17.3355 4.57497
4653 1 26.1991 19.109 7.24369
4574 1 26.0307 16.8913 8.21686
4576 1 28.1723 17.3113 6.4147
4651 1 28.1347 19.1156 5.01116
5370 1 30.349 17.4233 5.0277
5451 1 31.9622 18.9415 4.99388
5453 1 30.1821 19.1845 6.79163
5374 1 30.0957 17.0706 8.53341
5376 1 32.1669 16.8529 6.46471
6170 1 33.6229 17.0463 4.79734
6176 1 35.607 16.9829 6.75064
6251 1 35.319 18.9415 5.00243
6174 1 33.5548 18.8977 6.66113
7052 1 2.64427 20.7342 3.47615
7055 1 2.68254 20.7569 6.36486
7056 1 2.37873 22.6121 4.9651
7133 1 0.727715 22.9549 6.43504
7050 1 0.5521 20.8025 4.69555
7852 1 6.50882 20.4559 3.52902
7929 1 4.64549 21.1386 5.13929
7933 1 4.23466 22.8866 6.41912
7856 1 5.98696 20.6718 6.70933
7931 1 6.35789 22.664 4.70257
650 1 8.09782 20.5106 5.06527
733 1 7.65967 22.6979 6.48453
656 1 10.089 20.9442 6.76263
731 1 9.76921 22.7662 4.91682
1533 1 11.6848 22.489 6.7876
1450 1 11.523 20.8822 4.74462
1456 1 13.6241 20.6595 6.69821
2250 1 15.3637 20.7456 5.01217
1531 1 13.3673 22.6102 5.37518
2333 1 15.5583 22.9722 6.54012
2256 1 17.2346 21.0472 6.74186
2331 1 17.4128 22.5405 4.99917
3050 1 19.337 20.8402 4.72502
3133 1 19.2246 22.8235 6.42626
3131 1 20.8427 22.6207 4.58122
3056 1 21.0529 20.9406 6.68961
3850 1 22.7329 21.0471 5.04309
3933 1 22.4771 22.9358 6.77543
3856 1 24.1259 20.9892 6.90582
3931 1 24.7191 22.5509 5.15447
4650 1 26.4769 20.7389 5.26625
4733 1 26.5388 22.9286 6.98564
4731 1 28.2504 22.7125 4.93298
4656 1 27.9197 20.8411 7.04072
5450 1 30.0355 20.7646 4.83602
5533 1 29.9554 22.9063 6.6466
5531 1 31.9495 22.6253 4.64584
6253 1 31.8891 20.9547 6.51742
6250 1 33.8222 20.6992 4.93593
5456 1 33.5959 22.6604 6.65182
6256 1 35.3956 20.7098 6.77158
6331 1 35.0767 22.8367 4.8518
7136 1 2.62643 24.6756 6.64568
6411 1 2.86682 26.4896 5.08889
7130 1 0.769223 24.8893 4.71043
6413 1 0.651591 26.3724 6.65673
7932 1 6.33078 24.3442 3.13985
7930 1 4.48777 24.826 4.85977
7213 1 4.57648 26.2268 6.85371
7936 1 6.49945 24.6885 6.30234
7211 1 6.46491 26.7391 5.01717
730 1 8.20464 24.7598 4.59199
13 1 8.14231 26.5754 6.47235
736 1 9.62312 24.4797 6.63554
11 1 10.1298 26.4156 4.75725
15 1 9.3523 26.0183 8.39409
809 1 12.1895 26.6987 2.95272
1530 1 11.3506 24.3162 5.06167
813 1 11.5633 26.5845 6.85259
1536 1 13.198 24.6158 6.64086
2330 1 15.0513 24.861 4.84616
1613 1 15.2954 26.7169 6.9237
811 1 13.404 26.548 5.25833
816 1 13.4018 28.5758 6.89882
1611 1 17.3735 26.4593 4.77134
2336 1 17.5149 24.7447 6.49388
3130 1 19.4214 25.0421 4.43253
2413 1 18.8425 26.6884 6.66691
1693 1 15.2091 28.484 4.89096
3136 1 20.851 24.812 6.50706
2411 1 21.211 26.5656 4.37492
3930 1 22.7213 24.5344 4.85744
3213 1 22.7755 26.4077 6.7271
3211 1 24.8824 26.558 4.58775
3936 1 24.6741 24.7496 6.49392
4730 1 26.4129 24.5237 4.83137
4013 1 26.3819 26.3639 6.55323
4809 1 28.4323 26.3789 4.97849
4736 1 28.207 24.5241 6.82796
5530 1 30.1772 24.4323 4.74622
4813 1 29.8196 26.1281 6.86041
4811 1 31.8099 26.5038 4.81362
6333 1 31.7282 24.4078 6.34993
6330 1 33.519 24.8537 4.48737
5613 1 34.0219 25.9388 6.63337
6336 1 35.5196 24.3814 6.70313
5611 1 35.4628 26.1821 4.86928
6410 1 0.440261 28.1081 5.08019
6416 1 2.63142 27.7936 7.0587
6491 1 2.60171 29.7728 4.89755
6493 1 0.983405 29.8756 6.83782
6490 1 0.684953 31.592 4.9909
7293 1 4.17245 30.1762 6.70413
7210 1 4.49539 28.4741 4.83848
7216 1 6.13332 28.1832 6.70068
7291 1 6.21575 30.0398 4.9
7296 1 6.19491 31.9695 6.14026
7290 1 4.05349 31.8331 4.76298
93 1 8.15952 30.1059 6.61742
10 1 8.07428 28.3904 4.79659
16 1 9.67582 28.1171 6.82613
91 1 9.90539 30.0582 5.06046
96 1 9.7278 31.7862 6.65943
90 1 8.38162 31.8116 4.83095
890 1 11.4838 31.9947 4.59787
810 1 11.7985 28.1221 4.5854
893 1 11.6677 29.9218 6.7098
1690 1 14.929 30.1772 6.60981
889 1 13.1881 30.2639 4.83054
896 1 13.3222 32.0093 6.72086
891 1 15.2705 31.9122 4.52274
1616 1 17.1966 28.4701 6.71971
1691 1 17.0558 30.2404 4.59404
2410 1 18.7123 28.7963 4.72675
2493 1 18.9504 29.9969 6.68325
2490 1 19.0944 31.8131 4.56517
1696 1 17.2431 31.8386 6.56799
2416 1 20.9086 28.0768 6.19341
2491 1 20.8084 30.1045 4.69412
3210 1 22.7031 28.179 4.46288
3293 1 22.5824 29.8723 6.78927
3290 1 22.9039 31.7576 4.59066
2496 1 20.9057 31.889 6.82351
3216 1 24.5037 28.268 6.45782
3291 1 24.7393 29.9127 4.7548
4010 1 26.8417 28.2321 4.96994
4093 1 26.0258 30.059 6.57628
4090 1 26.6157 31.7727 4.73206
3296 1 24.3047 31.8119 6.61978
4889 1 29.779 30.0629 3.03042
4012 1 28.5842 28.2142 2.90916
4011 1 28.3818 28.0628 6.62355
4816 1 31.921 28.1311 6.59598
4810 1 30.2239 28.3482 4.94393
4091 1 28.0881 30.0231 5.00725
4893 1 30.1619 29.7355 6.94738
4095 1 28.056 31.6448 6.61205
4891 1 31.7412 29.9914 5.15372
4896 1 31.7337 31.4675 7.32263
5689 1 33.748 29.7359 3.06092
6414 1 35.4893 28.0118 6.96456
5616 1 33.7506 28.0738 4.93865
5693 1 33.7515 29.7892 7.23328
5691 1 35.3512 30.1133 5.44983
5690 1 33.6689 31.6447 5.04065
5696 1 35.8392 31.8074 6.74737
6496 1 2.46578 31.7222 6.92805
6570 1 0.517245 35.3604 4.85123
6576 1 2.11331 35.2635 6.82705
6571 1 2.29977 33.3909 4.73761
6573 1 0.553392 33.4581 6.60933
7370 1 4.17766 35.4456 5.25657
7376 1 6.18616 35.2633 6.72806
7373 1 4.19401 33.5178 6.72925
7371 1 6.14953 33.6549 4.9795
170 1 7.66423 35.3993 5.0416
173 1 7.89373 33.5946 6.79883
176 1 9.46324 35.306 6.51407
171 1 9.63533 33.6119 4.87555
970 1 11.2129 35.4558 4.55219
973 1 11.3244 34.0055 6.70941
976 1 13.6008 35.3922 6.50289
1853 1 15.3582 35.1408 4.46763
971 1 13.346 33.3251 4.812
1773 1 15.5556 33.5869 6.16328
2570 1 18.4641 35.6561 4.5369
1776 1 16.9743 35.2649 6.41228
1771 1 17.5028 33.6666 4.69615
2573 1 19.1946 34.028 6.60831
3370 1 22.5347 35.5624 4.81621
2576 1 20.6385 35.8306 6.50394
2571 1 20.8624 33.6017 5.25406
3373 1 22.7686 33.8153 6.54357
3376 1 24.4878 35.2692 6.56201
3371 1 24.6708 33.5803 4.69143
4176 1 26.5936 35.3776 4.95742
4173 1 26.5705 33.6365 6.59229
4171 1 28.4563 33.6292 4.80904
4890 1 30.2443 31.5439 5.14727
4970 1 30.2703 35.7878 4.48146
4096 1 28.8513 35.2668 6.35862
4973 1 30.0893 33.2908 6.65694
4971 1 31.9248 33.1878 4.87041
4976 1 32.0184 35.3957 6.77702
5776 1 35.5014 35.4619 6.50637
5770 1 33.48 35.4304 4.82394
5773 1 33.7635 33.4193 6.3512
5771 1 35.5852 33.3181 4.92455
6655 1 2.40532 0.437923 7.9546
6654 1 0.700687 2.45712 8.10851
6660 1 2.49198 2.84094 10.132
6659 1 2.31728 0.921359 11.8789
6657 1 0.816155 0.787003 10.0951
6658 1 0.546368 2.44233 11.8621
7457 1 4.15488 0.531174 10.2648
7458 1 4.36141 2.32323 12.0327
7455 1 3.952 2.41974 8.71147
7460 1 5.975 2.05426 10.1394
7380 1 6.11491 0.602412 11.7741
254 1 6.03401 0.486839 8.48925
257 1 8.01318 0.974444 10.0238
258 1 8.07142 2.23714 12.1184
255 1 9.74184 0.842592 8.54645
260 1 9.59537 2.67099 9.98024
259 1 9.86828 0.69937 11.9751
1057 1 11.6075 0.555336 10.1405
1060 1 11.6676 2.30385 12.0123
1054 1 11.7406 2.49956 8.25643
1854 1 15.0746 2.51255 8.24211
1055 1 13.4927 0.45795 8.0985
1778 1 15.4378 0.339413 9.79209
1857 1 13.3773 2.38541 10.4569
1059 1 13.405 0.61339 11.9235
1858 1 14.8538 2.12954 12.2806
1855 1 17.185 0.970113 8.51521
2657 1 18.7647 0.187603 10.1908
2654 1 18.8873 2.74784 8.34096
1860 1 17.1431 2.65992 10.2431
1859 1 17.0837 0.764664 12.182
2658 1 18.9563 2.28617 12.1231
2660 1 20.7971 2.57182 10.1122
2659 1 20.6592 0.754441 12.0315
2655 1 20.2062 0.39579 8.46751
3457 1 22.3944 0.597367 10.208
3454 1 22.652 2.23693 8.3347
3458 1 22.5212 2.11043 12.347
4254 1 26.734 2.55871 8.05115
3455 1 24.7366 0.524465 8.33487
3459 1 24.3392 0.626786 11.8221
3460 1 24.4154 2.52543 10.1375
4257 1 25.9611 0.607921 10.0731
4258 1 26.3184 2.10726 12.0075
4259 1 28.5009 -0.240243 11.6726
4255 1 28.5921 0.419657 8.28116
4260 1 28.2167 2.39075 9.96466
5057 1 30.0369 0.487432 10.049
5054 1 30.1991 2.25694 8.01637
5058 1 29.8299 2.3061 11.8017
5055 1 31.5998 0.365006 8.29977
5060 1 32.1611 2.58222 10.0066
5059 1 31.981 0.667276 12.1578
5857 1 33.3213 0.676821 9.84839
5855 1 35.2395 0.625103 7.96106
5860 1 35.6764 2.5246 9.98108
5858 1 33.7138 2.25111 11.8695
5854 1 33.8277 2.82139 8.3216
5859 1 35.1962 0.467423 11.7893
6735 1 2.69269 4.61609 8.37221
6740 1 2.30999 5.94366 10.4692
6739 1 2.82162 4.26893 11.9783
6737 1 0.546049 4.40728 10.1401
6734 1 0.782739 6.27168 8.3241
6738 1 0.647464 5.75056 12.4688
7534 1 4.17394 6.25465 8.26083
7537 1 4.1627 4.45542 10.2417
7535 1 5.58516 3.97579 8.40564
7540 1 6.03108 6.25941 9.95506
7538 1 4.28445 6.07123 11.9091
7539 1 6.11374 3.98049 11.9796
334 1 8.09519 5.62035 8.18515
417 1 7.72725 5.87985 11.6932
337 1 7.80775 3.98796 10.368
335 1 10.0718 4.48833 8.40115
340 1 9.24207 5.80884 10.1734
339 1 9.80974 4.00166 12.1121
1138 1 11.594 6.15152 12.1495
1134 1 11.7865 5.917 8.07188
1137 1 11.6672 4.31365 10.5337
1140 1 13.3526 4.00008 8.57913
1219 1 13.3526 6.11707 10.1478
1937 1 15.1651 4.23526 10.2231
1139 1 13.467 4.26139 12.4888
1938 1 15.2677 6.00848 12.3362
1934 1 15.3548 5.96426 8.49089
1224 1 13.4058 7.77168 12.0014
1940 1 17.0925 5.82545 10.0318
2737 1 19.0251 4.55214 10.6174
2734 1 18.6987 5.96695 8.2266
2738 1 18.9644 6.36303 12.3919
1939 1 16.9352 4.28978 12.1615
2735 1 20.8448 4.0032 8.3633
2740 1 20.8964 6.08315 10.0808
3537 1 22.5539 4.40837 10.2139
3534 1 22.7853 5.69845 8.41665
3538 1 22.9035 6.17887 12.3363
2739 1 21.0429 4.28085 12.0113
3540 1 24.3801 5.71256 10.4552
3535 1 24.4037 4.12418 8.40039
4337 1 26.1129 4.0709 10.1256
4338 1 26.311 6.17051 12.1099
3539 1 24.5031 3.88789 12.181
4335 1 28.0979 4.3303 8.47392
4339 1 27.8663 4.06012 11.6736
4340 1 28.0155 6.00285 10.3543
5137 1 30.2023 4.05959 10.1651
5134 1 29.7562 6.53592 8.48725
5138 1 30.2672 5.78143 12.0087
5135 1 31.8056 4.2736 8.5201
5139 1 31.8304 3.78123 12.2741
5140 1 31.939 5.84815 10.3419
5934 1 33.7541 5.99475 8.35751
5939 1 35.5332 3.93131 12.33
5935 1 35.6126 4.50051 8.39609
5937 1 34.0832 4.35424 9.96459
5940 1 35.7053 6.12655 10.3031
5938 1 33.7845 5.78885 11.812
6815 1 2.35424 8.33852 8.21317
6820 1 2.5919 9.86522 10.7848
6817 1 0.614637 8.06768 10.1252
6814 1 0.823344 9.836 8.43287
6819 1 2.43254 7.78199 11.9857
6818 1 0.603813 9.72575 12.4149
7614 1 4.49783 10.0211 8.69965
7615 1 6.34968 8.29598 8.57336
7617 1 4.16247 7.59962 10.1352
7618 1 4.70486 9.69541 12.0781
7620 1 6.43128 10.0216 10.2239
7619 1 6.64362 8.12562 11.7077
7697 1 4.52681 11.5808 10.6847
420 1 8.21081 7.77243 10.1638
497 1 8.34738 9.82807 12.1896
414 1 8.18433 10.27 8.36118
1214 1 11.5601 9.86474 8.45016
415 1 9.83738 7.77444 8.22037
1213 1 9.70988 9.85102 10.1854
419 1 9.84262 7.71483 11.9593
1217 1 11.5949 8.07555 10.0204
1218 1 11.4448 9.36037 12.1762
1215 1 13.5866 8.34854 8.47906
2014 1 15.4436 10.1969 8.63023
1295 1 13.9975 9.572 10.4935
2017 1 15.1228 7.38506 10.4437
1220 1 15.1441 9.26693 12.545
1297 1 13.1059 11.1549 12.0214
2097 1 15.3552 11.6114 10.4527
2015 1 16.8827 7.99858 8.83909
2020 1 17.0454 9.65233 10.4627
2817 1 18.8414 7.62026 10.1144
2814 1 18.8415 9.53471 8.53888
2019 1 17.1671 7.70092 12.7512
2818 1 19.155 9.16341 12.4197
2897 1 19.1766 11.2028 9.9958
2099 1 17.4317 11.4557 11.7901
2095 1 17.0303 11.5542 8.74355
2815 1 20.5736 7.9078 8.32555
3614 1 22.9908 9.56636 8.35712
2820 1 20.8305 9.58055 9.92531
3617 1 22.7887 7.53431 10.027
3618 1 22.6094 9.49543 11.7
2819 1 21.1397 7.79737 12.1052
3619 1 24.4145 7.85093 12.2263
3620 1 24.6172 9.636 10.2721
3615 1 24.5203 7.3215 8.40293
4417 1 25.8399 7.705 10.2828
4414 1 26.3865 9.66803 7.62718
4418 1 26.2037 9.75531 11.8693
4420 1 28.0532 9.67592 9.82617
4497 1 26.2005 11.6262 9.95659
3695 1 24.5069 11.1945 8.1024
5214 1 30.2268 9.44486 8.29075
4415 1 27.7746 7.6803 8.46385
4419 1 27.9114 7.89172 12.0439
5217 1 29.9721 7.62981 10.5974
5220 1 31.9729 10.0519 10.2334
5218 1 29.9825 9.78685 11.7137
5215 1 32.0544 7.51694 8.56962
5297 1 29.5477 11.6976 10.1699
5219 1 32.0257 7.62857 11.9482
6014 1 33.6919 9.71005 8.69798
6017 1 33.8811 7.87346 10.4455
6015 1 35.5526 7.91986 8.76823
6020 1 35.6027 9.79485 10.3026
6019 1 35.6242 7.93112 12.2395
6018 1 33.88 9.78915 12.0543
5299 1 31.8666 11.7472 11.9656
6095 1 35.3883 11.5874 8.57307
6097 1 33.5196 11.8081 10.3007
6899 1 2.31081 11.424 12.6926
6897 1 0.794294 11.6109 10.5593
6895 1 2.69002 11.3408 8.92276
6898 1 2.3947 13.4328 10.4262
6894 1 0.421833 13.0451 8.68351
6104 1 0.661234 13.2868 12.2253
6975 1 2.56377 15.2165 8.71774
6979 1 2.46726 14.9267 12.1155
6977 1 0.479533 15.3143 10.624
7700 1 6.13645 11.7684 12.2827
7695 1 6.12466 11.7577 8.41957
7694 1 4.40775 13.5655 8.81755
7773 1 6.54387 15.2749 8.28837
7698 1 4.42881 13.2354 12.3098
7775 1 6.18574 13.2592 10.4185
7779 1 6.09011 15.2224 12.1089
6900 1 4.06699 15.7687 10.3754
1293 1 8.22581 11.6597 10.4451
1301 1 10.1019 11.8783 12.3911
493 1 10.1051 11.8075 8.48553
575 1 9.93037 15.2352 8.79744
498 1 8.02056 13.2947 12.3217
494 1 7.88084 13.2749 8.57379
500 1 10.0093 13.5624 10.5453
579 1 9.96772 15.0021 12.3558
577 1 7.95121 15.0297 10.4044
642 1 11.7961 13.4366 12.2769
495 1 11.8719 11.7334 10.3801
1294 1 11.9504 13.5683 8.54486
2094 1 13.4544 11.4799 8.53544
496 1 12.007 15.3054 10.7522
2177 1 15.2597 13.6482 8.63042
1299 1 13.6106 13.6505 10.4303
2179 1 15.2186 13.4096 12.0547
1377 1 13.939 15.5427 12.2311
1375 1 13.3613 15.428 8.65493
1300 1 15.0745 15.6059 10.3061
2100 1 16.9695 13.8115 10.4472
2894 1 19.004 13.2978 8.74443
2898 1 19.0466 13.3563 11.7381
2978 1 17.3325 15.5474 12.1903
2175 1 17.0168 15.3953 8.58546
2977 1 19.2304 15.395 10.1708
2899 1 20.6044 11.4338 11.9541
3697 1 22.6694 11.2704 10.1315
2895 1 20.8255 11.5296 8.25754
2900 1 20.9762 13.5726 10.2463
3694 1 22.5317 13.2304 8.37225
3698 1 22.6017 13.2346 11.9215
2979 1 21.0613 15.1767 11.9439
3777 1 22.9446 15.259 10.0328
2975 1 21.0832 15.2807 8.73859
3699 1 23.9853 11.3134 12.3187
3775 1 24.2249 15.1172 8.22243
3700 1 24.437 13.3184 10.1074
4494 1 26.1441 13.5408 8.36799
4498 1 26.0499 13.2817 11.8132
4495 1 28.248 11.2905 7.94466
4499 1 28.0221 11.7105 11.8913
4500 1 27.9024 13.6364 10.031
5380 1 31.8608 15.5474 8.38537
5294 1 29.7545 13.602 8.42969
5377 1 29.7032 15.5489 10.1968
5300 1 31.737 13.6171 9.82271
5298 1 29.8535 13.7759 11.7563
4579 1 28.1092 15.154 11.8423
6099 1 35.556 11.6171 12.0891
5295 1 31.6516 11.6454 8.56516
5379 1 32.0263 15.2687 12.0364
6094 1 33.8334 13.5907 8.36844
6100 1 35.6137 13.3125 10.5725
6098 1 33.8132 13.328 12.4014
6179 1 35.584 14.9979 12.2352
6175 1 35.7713 14.9603 8.64856
6177 1 33.8453 15.0382 10.2846
7777 1 2.25826 16.9124 10.1486
6974 1 0.869021 16.8691 7.96576
7059 1 2.2066 19.0411 12.2058
7057 1 0.626851 18.5483 10.512
6980 1 2.41306 18.9045 8.19429
6978 1 0.96813 17.0883 12.3273
7855 1 6.29576 18.8943 8.3906
7774 1 4.57367 16.9574 8.34636
7857 1 3.94909 19.0479 10.2996
7778 1 4.05799 17.3637 12.167
7780 1 6.0913 17.0618 10.33
7859 1 5.94876 19.1914 11.9374
657 1 7.8048 19.0858 10.3009
574 1 7.8792 17.0219 8.69829
655 1 9.89555 18.9673 8.55364
580 1 9.62628 17.0242 10.4279
659 1 9.74421 18.9218 11.9918
1378 1 11.6322 17.0969 12.2092
578 1 7.89876 17.094 12.0438
1457 1 11.9485 18.9429 10.5194
1374 1 11.6278 16.9996 8.77667
1380 1 13.5441 17.3904 10.6867
2174 1 15.5232 17.2023 8.36574
1455 1 13.4508 19.17 8.71626
2257 1 14.996 19.4412 10.3058
1459 1 13.5687 19.0838 12.347
2178 1 15.4728 17.2942 12.1364
2974 1 18.8854 17.2183 8.48416
2180 1 17.1334 17.4254 10.3107
2255 1 17.4388 19.0532 8.60011
2259 1 17.317 19.3077 11.9132
2980 1 19.3747 17.1115 11.7845
3057 1 19.2973 19.0556 9.96298
3774 1 20.9716 17.1706 9.82012
3853 1 22.6347 17.4242 8.3419
3059 1 20.8768 19.2061 11.7948
3778 1 22.6029 17.4981 11.6652
3055 1 20.8006 19.0303 8.18096
3857 1 22.3134 19.0945 9.99745
3779 1 24.3957 15.079 11.9118
4577 1 26.0649 15.4086 9.82306
3855 1 24.1789 19.3248 8.8459
3780 1 24.5366 17.394 10.0913
3859 1 24.5296 19.4761 11.5686
4657 1 26.2198 19.1582 9.93299
4578 1 25.9071 16.8772 11.7095
4659 1 27.8765 18.9243 11.8854
4655 1 28.1478 18.8575 8.48348
4580 1 28.057 17.1054 10.4072
5457 1 29.9729 18.9529 10.6459
5460 1 31.7587 18.7368 8.58642
5459 1 32.0722 18.6366 12.5418
5378 1 30.1246 17.2214 12.1055
5455 1 32.0345 17.326 10.6139
5375 1 33.8558 16.8304 8.418
6180 1 35.7007 16.7893 10.1594
6255 1 35.2117 18.8441 8.35741
6257 1 33.4876 18.999 10.4839
6178 1 33.9972 17.0167 12.0429
6259 1 35.5265 18.7676 12.2351
7060 1 2.25795 20.6112 10.2077
7135 1 2.25719 22.5124 8.39275
7137 1 0.517977 22.4949 10.0552
7054 1 0.604514 20.6893 8.29843
7058 1 0.409114 20.6713 12.2556
7139 1 2.5417 22.1801 11.9568
7854 1 4.51924 20.6145 8.48528
7937 1 3.97313 21.9164 10.3024
7860 1 6.13022 20.8162 10.2188
7935 1 5.95266 22.4526 8.42782
7939 1 6.05069 22.5992 12.2856
7858 1 4.06015 20.4182 12.29
737 1 7.80858 23.0562 10.734
735 1 9.61753 22.607 8.2203
658 1 8.2246 20.8176 11.6738
654 1 8.15386 20.842 8.30345
660 1 9.86945 20.7929 9.5621
739 1 9.78496 22.8124 11.8715
1454 1 11.9696 21.0366 8.63411
1458 1 11.5477 21.1137 12.2954
1537 1 11.6311 22.5557 10.1545
1535 1 13.6724 22.8018 8.18222
1460 1 13.3362 20.7206 10.6389
2254 1 15.396 20.6261 8.32437
2337 1 15.2801 22.5908 10.5634
1539 1 13.4821 22.7211 12.2195
2258 1 15.1163 20.7659 12.1227
2335 1 17.527 22.8898 8.31072
2260 1 16.9474 20.9106 10.119
3054 1 19.0478 21.1011 8.318
3137 1 19.0234 22.6808 10.3851
2339 1 17.046 22.2547 12.1271
3058 1 19.1618 20.7201 11.778
3854 1 22.4352 21.2757 8.76986
3135 1 20.6221 23.0003 8.37488
3139 1 20.7825 22.6557 11.8079
3060 1 20.6684 20.9036 10.0289
3937 1 22.5166 22.9354 10.1739
3858 1 22.7059 21.0512 11.5321
3860 1 24.7515 21.4265 10.1303
3935 1 24.1582 22.9655 8.37328
3939 1 24.3216 22.7247 12.0913
4654 1 26.1478 21.1715 8.41834
4737 1 26.7035 22.7885 10.2544
4658 1 26.513 21.2145 11.7568
4735 1 28.3849 22.6844 8.42582
5535 1 32.2939 22.3307 8.58204
4739 1 28.4779 23.112 12.3222
4660 1 28.2139 20.843 10.2426
5454 1 30.2237 20.5461 8.56146
5539 1 32.1406 20.6908 10.4796
5537 1 30.0981 22.3477 10.105
5458 1 29.8922 20.6067 12.3868
5540 1 31.8418 22.5991 12.3544
6335 1 35.9043 22.9562 8.36107
6337 1 33.5096 22.6946 10.5447
6254 1 33.6175 20.6501 8.547
6260 1 35.7917 20.6424 10.1516
6339 1 35.6265 22.7091 12.1719
6258 1 33.9252 21.1428 12.0536
7140 1 2.64124 24.0308 10.1742
6415 1 2.63737 26.1315 8.81723
6419 1 2.80719 26.2583 12.0466
6417 1 0.790221 26.4458 10.2105
7138 1 1.02263 24.2534 12.1762
7134 1 0.74921 24.6938 8.57336
7938 1 4.28629 24.4127 12.786
7217 1 4.34372 26.5472 10.4905
7934 1 4.06954 24.3123 8.39875
7215 1 6.06667 26.2003 8.41377
7940 1 5.68681 24.2726 10.0834
7219 1 6.11868 26.3324 12.1071
734 1 7.86363 24.2155 8.66997
738 1 8.10346 24.8419 12.3684
17 1 7.99895 26.0955 10.1941
740 1 9.81648 24.5186 10.4786
19 1 9.95082 26.3784 12.5373
20 1 9.48276 27.8943 10.4018
1538 1 11.858 24.7147 12.2677
817 1 11.5708 26.5231 10.7193
1534 1 11.4133 24.4566 8.78162
815 1 13.3482 26.4038 8.4382
1540 1 13.5142 24.5789 10.4281
1617 1 15.4642 26.4156 9.76016
819 1 13.6153 26.3726 12.2638
2338 1 15.3024 24.9688 11.697
814 1 11.4355 28.0493 8.75607
1614 1 15.5896 28.5703 8.50939
2334 1 15.3947 24.193 8.57026
3134 1 19.1316 24.6168 8.61892
2340 1 17.268 24.5611 10.1533
1615 1 17.4602 26.4609 8.57753
2417 1 19.1921 26.5019 10.6011
1619 1 17.1974 26.4855 12.1602
3138 1 18.7857 24.3681 12.3649
2418 1 18.4863 28.3152 12.4454
3934 1 23.0787 25.1182 8.75571
2415 1 20.8535 26.3712 8.38727
3140 1 20.8074 24.9631 10.5773
3217 1 22.881 26.7638 10.5297
2419 1 20.3999 26.4098 12.4202
3938 1 22.5596 24.6807 12.0758
3940 1 24.7898 24.4991 10.3802
3219 1 24.779 26.5027 11.9991
3215 1 24.5846 26.652 8.57585
4734 1 26.3217 24.7711 8.70972
4017 1 26.4304 26.5276 10.2785
4738 1 26.6679 24.6041 11.7828
4024 1 28.3828 26.4854 12.2566
4740 1 28.2592 24.3917 10.0737
4015 1 28.1855 26.2259 8.58304
5536 1 30.3958 24.4524 8.53909
5534 1 30.0554 26.3491 10.6333
4817 1 31.7217 24.4467 10.6251
5538 1 30.0449 24.494 12.1448
5361 1 32.2309 26.2552 12.2558
4815 1 32.0259 26.1344 8.34967
6334 1 33.6842 24.3035 8.62212
5617 1 34.0228 25.7725 10.2743
6340 1 35.7278 24.1636 10.5591
5615 1 35.6548 26.1909 8.48413
5619 1 35.8539 26.3525 11.927
6338 1 33.8122 24.1354 12.4944
4164 1 0.681599 28.0196 8.45111
6497 1 0.808272 28.1087 12.0489
6495 1 2.647 29.9363 8.52187
6420 1 2.3976 28.2531 10.3253
6418 1 0.404697 29.674 10.2494
7301 1 2.27188 29.917 12.0082
6494 1 0.899544 31.7264 8.69308
6498 1 0.768773 31.8501 11.9124
7298 1 2.66941 31.9375 10.3658
7218 1 4.15882 28.2131 11.9373
7220 1 5.98422 28.0547 10.1574
7214 1 4.51712 28.2933 8.32634
6500 1 4.24338 29.9386 10.4247
7295 1 5.93216 30.2233 8.03423
7299 1 6.09334 30.0799 12.022
7300 1 6.16291 31.8396 10.206
7379 1 4.48022 31.7867 12.0852
7294 1 4.18393 31.8171 8.68734
95 1 9.54998 29.8179 8.49459
97 1 7.88159 29.9425 10.1854
14 1 7.66181 27.9192 8.60427
18 1 7.74939 28.1813 12.2264
99 1 9.50293 29.9217 11.8652
100 1 9.39358 31.7713 9.90787
98 1 7.97164 31.8658 11.8378
94 1 7.32026 32.0104 8.28549
894 1 11.4121 31.8335 8.31244
818 1 11.4644 28.3786 12.3536
897 1 11.5044 30.2965 10.3621
898 1 11.4089 32.0292 12.004
1618 1 15.4355 28.2261 12.0087
820 1 13.5266 28.2561 10.4531
895 1 13.096 30.3861 8.64872
1697 1 14.8235 29.9184 10.1059
899 1 13.2908 30.2448 12.0547
900 1 13.3488 31.9729 10.2768
1694 1 15.185 31.8638 7.97595
1620 1 17.4376 28.3384 10.0397
2414 1 19.043 28.2837 8.30288
1695 1 17.1594 30.3338 8.49357
2497 1 19.0241 29.916 10.0126
1699 1 17.0066 30.0548 11.7687
2498 1 19.1151 31.7826 11.906
2494 1 19.0194 31.8196 8.53848
3218 1 22.9917 28.5696 12.1408
2420 1 21.0898 28.0349 10.3661
3294 1 22.8141 31.8691 8.3228
3214 1 22.6375 28.0905 8.30061
2499 1 20.7182 29.9322 11.8266
2495 1 21.0559 29.8931 8.61511
3297 1 22.7892 29.9642 10.3951
2500 1 20.8711 32.0637 10.3377
3298 1 22.3355 32.2116 12.1195
4018 1 26.4724 28.4303 12.0785
3220 1 24.5678 28.5775 10.3352
4014 1 26.3819 28.492 8.27982
3295 1 24.3683 29.9699 8.3368
3299 1 24.6042 30.3352 12.1618
4097 1 26.5681 29.9781 10.2159
4094 1 26.2906 31.6125 8.12148
4098 1 26.3383 31.8135 11.87
3300 1 24.3233 31.8306 10.0512
4100 1 28.4304 31.8004 10.493
4020 1 28.457 28.3999 10.2288
4814 1 30.3625 27.893 8.89217
4820 1 32.3716 27.6712 10.4894
4818 1 30.487 28.0866 12.0089
4016 1 28.2844 30.0986 8.56315
4099 1 28.4658 30.2373 12.2808
4895 1 32.0301 29.7483 9.23379
4897 1 30.2333 30.0902 10.6061
4899 1 32.3197 29.9301 11.9566
4894 1 30.0479 31.8153 8.71633
4900 1 32.1212 31.9745 10.2705
4898 1 30.4832 31.678 12.1903
5618 1 34.1455 28.2394 12.4898
5620 1 35.707 27.9216 10.0901
5614 1 33.5928 27.8135 8.41851
5695 1 35.98 29.9951 8.35511
5697 1 34.0791 30.0701 10.2889
5699 1 35.6214 30.3982 12.187
5700 1 35.8929 31.65 10.2866
5694 1 33.6765 31.7312 8.53493
5698 1 33.9434 32.0413 12.1208
6574 1 0.318188 35.2839 8.4455
6580 1 2.50552 35.6744 10.1822
7297 1 2.50825 33.6844 8.39845
6577 1 0.939534 33.7355 10.111
6579 1 2.74522 33.8634 12.0844
6578 1 0.87305 35.406 11.6194
7374 1 4.15755 35.7666 8.02611
7375 1 5.8079 33.7344 8.41435
6575 1 4.35036 33.5772 10.2464
7377 1 6.05697 35.2006 10.0204
7381 1 5.84784 33.7633 12.0783
7378 1 4.44989 35.5599 12.0368
177 1 7.95116 33.6954 10.4549
178 1 7.77538 35.7893 11.8077
174 1 8.20258 35.9252 8.57803
180 1 9.79766 35.6387 10.3082
175 1 9.63834 33.5476 8.40976
179 1 9.85095 33.6609 12.0617
974 1 11.3594 35.3827 8.46834
977 1 11.5089 33.5831 10.2787
978 1 12.0502 35.5354 12.0863
1698 1 15.0479 32.0778 12.0844
1774 1 15.3416 35.1626 8.32634
980 1 13.4268 35.4152 10.0393
984 1 15.3722 35.8886 11.771
975 1 13.4877 33.5849 8.58368
1777 1 15.367 33.5608 10.1845
979 1 13.5422 34.0357 12.1088
1700 1 17.0216 31.7885 10.3658
1775 1 16.946 33.352 8.25689
1780 1 16.8464 35.3702 10.2128
2578 1 18.6992 35.5761 11.9529
2574 1 18.6683 35.4279 8.38998
2577 1 18.6672 33.3378 10.147
1779 1 17.2829 33.4573 12.0055
3374 1 22.4963 35.5613 8.43452
2580 1 20.8354 35.3608 10.5614
2575 1 20.9415 33.7068 8.70597
3377 1 22.7412 33.6902 10.2473
3378 1 22.747 35.4812 11.7705
2579 1 20.3601 33.6954 12.2588
4174 1 26.3506 35.6 7.91295
3375 1 24.5177 33.5923 8.3597
3380 1 24.4057 35.5122 9.95581
4178 1 26.0043 35.118 11.7254
3379 1 24.341 33.5701 12.1871
4177 1 26.2297 33.5964 9.94901
4179 1 27.7787 33.6784 11.9901
4180 1 27.9857 35.0773 9.58028
4175 1 28.3462 33.1408 8.3343
4978 1 30.2295 35.4146 12.2868
4974 1 30.0735 35.0992 8.71767
4977 1 30.2696 33.353 10.5293
4980 1 31.653 35.2716 10.6266
4979 1 31.8783 33.5588 12.2468
4975 1 32.0114 33.5692 8.45401
5775 1 35.547 33.4987 8.40406
5774 1 33.8454 35.5256 8.3045
5780 1 35.3081 35.228 10.1707
5777 1 33.6173 33.8554 10.2359
5779 1 35.8381 33.5877 11.7274
5778 1 33.8873 35.0014 12.3736
6663 1 2.62902 1.08923 15.3619
6664 1 2.73409 2.72847 13.7172
6661 1 0.784994 0.507811 13.8599
6662 1 0.56162 2.62477 15.7451
982 1 13.5414 35.8995 14.1341
888 1 13.6756 31.9785 -1.02346
7462 1 4.34599 2.66479 15.7351
7461 1 4.36054 0.586024 14.0071
261 1 6.19399 0.783679 15.4803
7464 1 6.28504 2.31928 13.8936
5385 1 29.9772 15.0802 17.3383
7459 1 8.22031 0.205643 14.107
262 1 7.92356 2.6648 15.6035
263 1 9.78008 0.54803 15.6976
264 1 9.7072 2.17967 13.7492
1061 1 11.2369 2.23101 15.6529
1058 1 11.8216 0.481159 13.8359
1781 1 14.9007 33.8599 13.9299
1063 1 12.7972 0.499366 16.1597
1861 1 15.3993 0.512778 13.9732
1141 1 13.3863 2.14848 14.0793
1064 1 15.148 2.44682 15.5399
1863 1 16.9895 0.795735 15.982
2661 1 18.5149 0.652671 14.1906
2662 1 18.7521 2.77029 15.5654
1864 1 17.1272 2.60729 13.9462
2664 1 20.6091 2.34653 13.9754
2663 1 20.38 0.661344 15.7263
3461 1 22.2816 0.0623903 13.6292
3462 1 22.5917 2.02337 15.5487
3382 1 24.7708 0.43664 15.6939
3464 1 24.3319 2.09898 13.9993
4261 1 26.3933 0.255337 13.6644
3463 1 26.5513 2.14014 15.8667
4264 1 28.1354 2.29541 13.3617
1785 1 15.4116 35.5817 15.7304
5784 1 35.7608 35.2778 13.8479
4263 1 28.4239 0.643725 15.6861
5061 1 29.7278 0.621554 13.8813
5062 1 30.2249 2.42002 15.9067
5063 1 31.7803 0.379882 15.9492
5064 1 31.844 1.99226 14.0552
5783 1 36.0419 33.4896 15.6255
5861 1 33.7282 0.611852 13.7279
5863 1 35.6686 0.298194 15.5978
5864 1 35.5724 2.02637 14.1112
5862 1 33.9796 2.09485 15.8395
6743 1 2.44694 4.13773 15.6666
6744 1 2.64992 6.16693 13.9437
6742 1 0.673658 6.20476 15.5485
6741 1 0.745683 3.74057 13.8212
5781 1 33.9371 33.1248 14.2301
2583 1 22.7267 35.8732 15.7452
7541 1 4.59468 4.35513 13.6641
7542 1 4.09966 6.24369 15.633
7543 1 6.15012 4.58533 15.7093
7621 1 6.11901 6.00373 13.5438
341 1 7.89889 4.02208 13.6835
7544 1 7.85992 6.37893 15.7351
344 1 9.56539 4.46488 15.6098
338 1 9.20891 5.99472 13.5887
1069 1 11.487 5.97785 15.5736
1142 1 11.3315 4.41945 13.7222
5782 1 33.7412 35.5418 15.4348
1144 1 13.484 5.81808 14.0876
1223 1 13.1533 4.02463 15.5006
1942 1 15.3214 5.76684 15.9038
1941 1 15.2184 4.19134 14.0298
2502 1 20.6367 33.6785 15.3599
1943 1 16.9467 4.11597 16.0154
1944 1 17.115 5.75453 14.1246
2741 1 18.9 4.28143 13.6513
2742 1 19.0826 5.7484 15.7676
4904 1 31.8453 31.9685 13.8441
2743 1 20.7433 4.06409 15.5692
2744 1 20.8672 6.03527 13.8564
3541 1 22.5612 3.95556 13.8488
3551 1 22.3845 5.66973 15.4618
4902 1 30.459 32.0338 15.678
3544 1 24.4789 5.69258 14.2766
3543 1 24.4221 3.90109 15.751
4262 1 26.5009 3.84308 13.7847
4342 1 26.2866 6.39171 15.5491
4343 1 28.3417 4.13239 15.7192
4344 1 28.1803 5.75444 13.756
5141 1 29.7502 3.89631 13.8959
5142 1 30.2538 5.95348 15.8538
5144 1 31.8118 5.62076 14.0064
5143 1 32.0433 4.01875 15.8184
5942 1 33.7642 5.98022 15.6194
5941 1 33.7478 3.86975 14.3044
5943 1 35.7764 4.38258 15.9676
5944 1 35.3448 5.78108 13.9112
4585 1 26.4492 15.0418 16.7627
6823 1 2.34885 7.79083 15.5782
6824 1 2.6015 9.663 14.2445
6822 1 0.52304 9.35825 15.6231
6821 1 0.669266 7.7373 13.7613
6903 1 2.5159 11.4048 15.7129
6901 1 0.395069 11.5796 14.5663
2581 1 18.8069 33.7754 13.8893
7628 1 4.26926 9.50028 15.7093
7624 1 4.37393 7.86118 13.6568
7548 1 6.21468 7.76631 15.5885
418 1 6.20186 9.60753 13.8783
7703 1 6.1724 11.6393 15.6793
7701 1 4.60852 11.5423 14.1879
7623 1 7.91299 7.99973 13.7413
422 1 7.7771 9.47117 15.5985
421 1 10.0324 7.7998 15.5869
424 1 9.77459 9.55946 13.9268
1221 1 11.8922 7.62644 13.8493
4984 1 31.9867 35.8554 13.973
503 1 13.1786 7.58525 15.6635
504 1 11.482 9.45547 15.5035
2021 1 15.1051 7.61778 14.1494
1303 1 13.2643 9.77927 13.9797
2022 1 15.6313 9.65493 15.2413
2018 1 15.232 11.3044 13.6073
2023 1 16.9627 7.97412 15.6619
2024 1 17.388 9.61107 13.9079
2821 1 18.8012 7.73586 14.384
2822 1 18.7958 9.4275 15.9342
2103 1 17.4235 11.2984 15.7405
4184 1 28.1544 35.2367 13.833
2823 1 20.7584 7.72132 15.649
2824 1 20.7699 9.79325 14.0919
3621 1 22.8401 7.88231 14.0997
3622 1 22.5023 9.49676 16.0537
2903 1 20.6958 11.8076 15.8479
4183 1 28.1165 33.756 15.7559
3623 1 24.7009 8.13585 15.7738
3624 1 24.5418 9.72274 13.7172
4421 1 26.2723 8.09003 13.9411
4422 1 27.001 9.24312 15.824
4424 1 28.3452 9.26216 13.8002
3703 1 24.521 10.7994 15.9034
4501 1 26.6654 11.1404 13.7528
2582 1 18.2255 35.5502 15.6314
4982 1 29.9204 35.4463 15.7202
4423 1 28.5635 7.50225 15.8948
4341 1 30.0641 7.45529 14.0319
5222 1 30.0837 9.37011 15.5562
5224 1 31.6021 9.53818 13.6088
5221 1 31.9615 7.63964 15.5675
5301 1 30.1339 11.6874 13.5662
1784 1 16.827 35.331 13.5863
6023 1 35.5388 7.72035 15.4261
6021 1 33.7241 7.90846 13.7081
6022 1 33.7928 9.44727 15.6103
6024 1 35.5347 9.60768 13.726
6101 1 33.7662 11.3365 14.1938
1783 1 16.9967 33.4456 15.7339
6904 1 2.82669 13.2809 13.9885
6902 1 0.539492 13.2811 16.1703
6983 1 2.47847 15.044 15.7466
6981 1 0.901775 15.1945 13.9988
904 1 13.1146 32.0456 13.8344
7702 1 4.5711 13.5317 16.0173
7704 1 6.42451 13.558 14.0589
7783 1 6.15123 15.6155 15.5084
7781 1 4.39811 15.2244 13.82
983 1 13.5121 34.0402 15.8497
1222 1 9.37688 11.553 15.6844
7699 1 7.97305 11.6502 14.0313
502 1 7.86452 13.9423 15.8145
501 1 9.88688 13.2838 14.1788
583 1 9.67338 15.047 15.4055
581 1 8.36473 15.2597 13.5864
4981 1 30.1025 33.6642 14.0639
1302 1 11.6454 11.4661 13.9971
1307 1 13.7258 11.6448 15.3955
499 1 11.7457 13.3582 15.9112
1298 1 13.4803 13.622 14.0359
2098 1 15.4482 13.1986 15.4471
1383 1 13.7363 15.1401 15.9827
1381 1 11.8882 15.3112 14.0134
981 1 11.6471 33.9099 13.9644
4983 1 32.0981 33.7228 15.4393
2901 1 19.0704 11.4085 13.6295
2101 1 17.0128 13.5095 13.5332
2104 1 18.9783 13.1501 15.4458
2981 1 19.2338 15.3604 13.6829
1379 1 17.6147 15.2185 15.4819
3701 1 22.3439 11.339 14.3795
2904 1 20.8869 13.2623 13.8098
3705 1 22.8448 13.5282 15.2879
3781 1 22.9625 15.2616 13.5161
2983 1 20.9387 15.0381 15.4524
4181 1 26.0299 33.7227 13.7575
3704 1 24.5994 13.1304 13.7412
4502 1 26.2921 12.6133 15.566
3783 1 24.4912 15.7281 15.3933
4581 1 26.3859 14.7583 13.8664
4503 1 28.3588 11.593 15.5358
4583 1 28.2699 15.047 15.0869
4504 1 27.9856 13.1177 13.6853
5302 1 30.0212 13.5636 15.3728
5383 1 31.9503 15.1434 15.8597
5304 1 31.7504 13.3827 13.8881
5303 1 31.7825 11.6254 15.4577
5381 1 29.9925 15.2486 13.4302
6028 1 35.4056 11.6443 15.8602
6102 1 33.6683 13.4752 15.7994
6103 1 35.3498 13.5515 14.288
6181 1 33.5639 15.1982 13.9805
6183 1 35.3981 15.0499 16.2647
6984 1 2.63918 16.7974 14.1147
6982 1 0.756701 16.7678 15.7474
7063 1 2.49669 18.9449 15.9114
7061 1 0.508137 18.8089 14.0408
7782 1 4.29743 17.2991 15.8533
7784 1 5.92955 17.466 13.7225
7863 1 6.46038 18.7814 15.5494
7861 1 4.04043 19.0555 14.1715
661 1 7.84547 18.9846 13.4712
582 1 8.03881 16.7866 15.2185
584 1 10.0996 16.8248 14.218
663 1 9.89213 18.7954 15.4583
1382 1 11.6413 17.1338 15.7946
1067 1 11.1868 35.5405 15.9399
1304 1 15.3617 15.3853 14.1514
1461 1 11.4877 19.1006 13.8282
1384 1 13.2435 17.2384 13.9663
2182 1 15.1539 16.9975 15.9917
1468 1 13.592 19.0804 15.6479
2261 1 15.4558 18.9242 13.8918
2184 1 17.0704 17.1665 14.0571
2982 1 19.1232 17.0944 15.3636
2263 1 16.7984 18.9885 15.819
3061 1 18.6716 19.0612 14.0976
2984 1 21.2092 17.5764 13.4669
3782 1 22.3517 17.0637 15.5304
3063 1 20.8198 19.0171 15.6689
3861 1 22.6214 19.5032 13.5676
3784 1 23.9296 17.6555 13.8659
4582 1 26.2976 17.3768 15.3215
4661 1 26.1092 19.3017 13.5052
3863 1 23.658 19.5192 15.4708
4663 1 28.0394 19.1534 15.6181
4584 1 28.0787 17.085 13.3279
5382 1 30.0117 16.9291 15.6282
5461 1 29.6802 18.5159 13.7061
5384 1 31.6894 16.8775 14.4401
5463 1 31.6004 18.7187 15.7305
6182 1 33.6629 16.607 16.3111
6184 1 35.4019 16.6786 14.2256
6263 1 35.4854 18.7203 15.4904
6261 1 33.5274 18.542 14.2549
7064 1 2.28282 20.6279 14.084
7143 1 2.43877 22.4317 15.9454
7141 1 0.721596 22.3384 14.1977
7062 1 0.516562 20.3968 16.1178
4182 1 26.308 35.6787 15.6622
3383 1 24.454 33.7688 15.5146
7941 1 4.26795 22.3333 14.1767
7862 1 4.57172 20.542 15.8356
7864 1 6.28477 20.6522 13.6596
7943 1 6.60663 22.2785 15.6658
741 1 8.30865 22.7365 13.7451
662 1 8.0404 20.4598 15.8352
664 1 9.64533 20.8021 13.989
743 1 9.92817 22.6671 15.4406
1462 1 11.6679 20.847 15.8154
1541 1 11.9232 22.7038 14.3865
1543 1 13.4595 22.9579 16.1262
1464 1 13.3795 20.9357 13.8363
2262 1 15.2719 20.7734 15.9665
2341 1 15.3566 22.6575 13.8595
2343 1 16.876 22.6776 15.7699
2264 1 16.8008 20.7082 13.8779
3062 1 18.6653 20.9704 15.4366
3141 1 18.4999 22.5378 13.8192
3384 1 24.558 35.5466 13.7005
3064 1 20.7132 21.0937 13.6131
3143 1 20.6677 22.8577 15.5557
3862 1 22.6786 21.4188 15.1948
3941 1 22.4346 22.7728 13.3965
3864 1 24.5271 21.0493 13.719
3943 1 24.6989 22.6419 15.5531
4662 1 26.1479 20.9945 15.4653
4741 1 26.2966 22.6745 13.4604
4744 1 28.0282 22.8825 15.103
4664 1 28.2124 20.4956 13.945
5462 1 30.174 20.6849 15.4395
5541 1 30.3724 22.7033 13.9339
5543 1 31.7949 22.6826 15.6913
3381 1 22.5961 34.0731 14.0648
5464 1 31.8373 20.4475 14.0326
6341 1 33.8918 22.4376 14.0965
6262 1 33.6825 20.6204 15.6979
6264 1 35.3731 20.4812 13.9728
6343 1 35.6793 22.2081 15.4192
7144 1 2.69695 24.2433 14.3488
6423 1 2.74873 26.3232 15.3813
7142 1 0.647862 24.2133 15.8285
6421 1 1.20659 26.0893 13.841
7942 1 4.72391 24.1599 15.6593
7221 1 4.41738 26.7283 14.0415
7944 1 6.37903 24.2599 14.0914
7223 1 6.30041 26.2466 15.8033
742 1 8.16627 24.5433 15.6517
21 1 7.75678 26.3523 14.0428
744 1 9.9233 24.6202 14.1196
23 1 9.98104 26.7255 15.8084
821 1 11.7033 26.5992 14.3354
1542 1 11.8331 24.4257 15.5604
823 1 13.7851 26.0391 15.9565
1544 1 13.7962 24.6571 13.726
2342 1 15.3098 24.5191 15.4186
1621 1 15.3344 26.5787 13.8944
1623 1 16.7977 26.6041 15.4344
2344 1 16.7689 24.6139 13.5936
3142 1 18.2868 24.5607 15.6524
2421 1 18.7158 26.1984 13.9311
2422 1 18.664 28.5864 15.5231
2423 1 20.5006 25.9256 15.4731
3144 1 20.5683 24.2122 13.8142
3942 1 22.5849 24.4217 15.3527
3221 1 22.9474 26.4988 13.8127
2424 1 20.7825 28.4696 13.9352
3223 1 24.301 26.4425 15.8445
3944 1 24.6741 24.4296 13.7837
4742 1 26.0192 24.8201 15.6824
4021 1 26.5795 26.6101 13.8407
4022 1 26.5561 28.1358 15.6774
4019 1 28.1524 24.6888 13.6859
4025 1 28.4239 26.5099 15.6166
5542 1 29.9862 24.8315 15.2653
4821 1 30.2617 26.5059 13.7305
4823 1 32.0287 26.6651 15.4012
5544 1 31.9896 24.6862 13.8418
6342 1 33.8216 24.5502 15.411
4819 1 34.0472 26.1444 13.9667
6344 1 35.7891 24.499 13.7972
5623 1 35.7688 26.1796 16.0392
3068 1 20.3611 20.7453 17.4927
6422 1 0.670706 27.8986 15.4321
6424 1 2.26021 28.376 13.9727
6503 1 2.70128 29.7828 15.6827
6501 1 0.836022 30.2606 13.9042
6504 1 2.98264 31.7649 13.8059
6502 1 1.07545 31.829 15.634
6499 1 4.2548 29.7137 14.0165
7222 1 4.51529 27.9951 15.7922
7224 1 6.1676 28.2909 14.0625
7305 1 6.02972 30.1863 16.0216
7303 1 4.47803 31.8193 15.474
7302 1 6.27313 31.6352 13.9144
24 1 9.6736 28.2826 13.7976
22 1 8.04955 27.9912 16.077
101 1 7.91784 29.9483 13.8989
103 1 9.42709 29.8803 15.9836
102 1 9.66923 31.8902 13.932
104 1 11.3806 32.0301 15.5964
901 1 11.4148 30.0005 13.9874
822 1 11.6725 28.5753 15.8671
824 1 13.3446 28.0876 13.9589
1701 1 14.8889 30.3195 13.8198
903 1 13.2165 30.0357 15.6343
1702 1 15.2082 31.7864 15.6814
1622 1 15.1989 28.5888 15.668
1624 1 16.7302 28.665 14.1338
1703 1 17.1955 30.2886 15.9544
2501 1 18.4866 30.2805 13.7722
2505 1 19.0663 31.8225 15.5948
1704 1 16.8978 32.1757 13.9482
3222 1 22.6045 28.0314 15.7926
2503 1 20.814 29.9992 15.719
3301 1 22.6908 29.9537 14.0252
3302 1 22.552 32.0623 15.3613
2504 1 20.8808 31.4086 13.9067
2584 1 20.0782 35.8386 13.9126
3224 1 24.5866 28.3939 14.2038
3303 1 24.5591 30.4265 15.5407
4101 1 26.6744 29.9456 14.193
3304 1 24.3817 32.056 13.8672
4102 1 26.5524 32.1154 15.5052
4104 1 28.2781 32.0396 13.8752
4822 1 28.568 28.3887 13.8843
4103 1 28.5697 30.3017 15.7198
4023 1 30.106 28.2507 15.5356
4901 1 30.1762 30.0366 13.7744
4824 1 32.0771 28.489 13.8951
4903 1 32.2577 29.9235 15.5836
5621 1 34.3461 28.4389 15.5602
5624 1 35.9493 27.6254 13.8502
5704 1 35.9443 31.9176 13.8873
5702 1 34.2923 31.4216 16.0251
5701 1 33.9995 30.2678 14.0525
5703 1 35.9342 29.9464 15.5961
6582 1 0.952565 35.596 15.694
6584 1 2.54094 35.7867 13.5854
6583 1 2.72322 33.5801 15.6329
6581 1 0.953147 33.7683 13.8861
7382 1 4.19806 35.7637 15.6901
7384 1 6.33406 35.312 13.8826
7304 1 4.03611 33.9456 13.9746
7383 1 5.92137 33.7545 15.9828
183 1 9.49386 33.6211 15.6978
184 1 9.81441 35.4352 13.7224
181 1 8.03374 33.7012 13.4151
185 1 7.66113 32.1009 15.9665
7463 1 7.73541 35.1089 15.4873
3702 1 22.9236 14.9249 17.1008
4748 1 28.1342 24.6519 17.082
348 1 15.0573 11.7425 17.2926
5625 1 33.6598 26.2434 17.1795
2905 1 20.8602 13.5585 17.4522
3708 1 24.6394 13.0021 16.9468
3470 1 22.5888 4.00254 17.3473
6265 1 33.5361 18.77 17.2668
3065 1 18.9477 18.8812 16.9569
507 1 9.96382 9.89259 17.3452
6105 1 33.3791 11.3952 17.1997
1305 1 13.5419 9.55657 16.9536
4588 1 28.1788 16.8733 17.0541
6508 1 2.98828 31.4977 17.3894
3148 1 20.1502 24.5109 17.4032
1765 1 15.2578 33.9856 -1.06499
6667 1 2.26829 0.756751 19.5884
5872 1 0.551807 2.44716 19.4989
5875 1 0.442324 0.417112 21.3615
6592 1 2.08288 3.0008 21.3486
4505 1 26.7178 11.4276 17.3939
7470 1 4.36085 0.894007 21.2769
277 1 4.40813 2.42774 19.1956
7467 1 6.05028 0.500269 19.6433
270 1 5.88276 2.80378 21.1126
269 1 7.52032 0.813197 21.3863
2320 1 7.71644 2.919 19.2964
267 1 9.04175 0.618104 19.2379
347 1 9.34252 2.27038 20.8596
6428 1 2.71338 28.1128 17.5959
265 1 7.58069 0.944547 17.1839
1065 1 11.2518 2.0494 19.6608
997 1 11.5097 0.123806 21.1193
1079 1 13.0263 0.560334 19.3282
990 1 15.0607 2.28114 19.3526
1867 1 14.302 0.503244 21.3606
1947 1 14.9782 0.198315 17.4343
1862 1 13.4399 2.25807 17.4048
1865 1 17.0739 0.466595 19.2338
3546 1 18.4623 2.03458 19.8029
2592 1 16.3824 1.85596 21.2306
2594 1 18.8637 0.27872 21.0743
1945 1 16.7516 2.41257 17.533
4348 1 27.9584 5.74722 17.4196
3386 1 20.8079 0.323673 19.2789
3549 1 20.5613 2.15485 21.1206
4193 1 22.9402 0.815443 21.1231
5953 1 22.7746 2.17795 19.2702
3465 1 22.8571 0.48133 17.69
2667 1 20.7939 2.05649 17.7047
3473 1 24.5799 0.438088 19.3423
2109 1 24.7782 2.3328 20.8375
4266 1 26.4556 2.01074 19.2131
5567 1 26.4897 0.361749 20.987
2508 1 20.8279 31.7515 17.1922
4996 1 28.6033 2.5065 21.615
4272 1 28.3887 0.805635 19.6506
4989 1 29.9178 0.248874 21.4646
5066 1 30.0236 2.31112 19.4014
4764 1 31.8615 2.3422 21.2641
2362 1 33.0654 35.6056 31.0383
5070 1 32.0369 0.453483 19.7071
5866 1 33.6799 2.40747 19.3487
5867 1 35.7527 0.494979 18.9289
5792 1 34.322 0.402347 20.7474
5794 1 35.8131 2.57354 21.2483
2119 1 35.0161 35.0596 32.5585
4105 1 26.6637 30.0904 17.0991
6666 1 2.25974 4.62993 19.4169
6747 1 2.30798 6.08842 21.1465
6750 1 0.387632 4.55698 21.3834
6672 1 0.200949 6.34503 19.4607
7466 1 3.95782 4.53715 21.1114
266 1 4.11477 6.24394 19.0526
6676 1 6.18704 4.53525 19.4866
349 1 5.92277 6.43002 21.0433
2025 1 15.44 7.78744 17.4545
1979 1 33.3945 33.2566 32.0125
1312 1 7.80048 4.56703 21.2486
7630 1 7.91333 6.4721 19.462
440 1 9.73008 4.52406 19.4147
7475 1 9.82069 5.82494 21.4742
353 1 11.3067 4.0075 21.5036
7636 1 11.445 5.7906 19.6958
2275 1 8.03466 7.99114 21.2706
345 1 7.79206 4.61715 17.417
272 1 11.4232 3.74148 17.2799
343 1 12.8279 3.87695 19.3437
1229 1 15.3563 5.94965 19.448
2113 1 13.4836 6.0785 21.0156
4205 1 15.3562 3.90029 21.0301
1950 1 14.8262 4.09613 17.8891
3805 1 32.9439 33.9581 34.2787
1868 1 17.0698 3.98613 19.5292
3553 1 16.9546 5.76521 21.0596
3547 1 19.0141 5.51429 19.3817
2512 1 18.9835 3.93145 21.3047
4113 1 21.1126 5.94435 21.0421
2672 1 20.8995 3.89166 19.0342
3471 1 22.6536 5.53387 19.2393
3469 1 22.3348 3.94106 21.2424
423 1 11.4805 7.87936 17.4077
4665 1 26.3594 19.1148 17.223
5223 1 33.5468 8.02637 17.7628
3466 1 24.481 3.99814 18.9794
2832 1 24.3794 5.26343 21.036
4346 1 26.266 6.01649 19.0898
4352 1 26.6555 3.68483 21.2232
6034 1 28.0709 5.54707 20.6638
4345 1 27.7727 3.75182 19.1919
2825 1 20.7019 9.40643 17.5479
5227 1 29.6647 5.825 19.1216
4270 1 31.8945 5.91744 21.1552
5146 1 30.3495 4.14422 21.0639
5147 1 32.0544 4.05332 19.2566
4425 1 26.2182 8.31708 17.8643
2698 1 34.4634 35.8592 34.8712
2445 1 30.0937 33.8754 33.781
5947 1 33.7843 5.7322 19.3195
6827 1 35.6317 4.47827 19.2141
5951 1 33.9514 4.20769 21.2953
5952 1 35.2735 6.26576 21.3853
6828 1 2.10362 7.53872 19.2509
6826 1 0.497762 9.52672 19.3768
5399 1 0.590645 11.345 21.4176
2268 1 17.0561 20.6594 17.7389
6111 1 2.33143 9.51586 21.103
6746 1 0.331078 7.90918 21.4279
342 1 6.13987 8.11799 19.3434
346 1 3.80721 7.84598 21.1877
7626 1 4.04424 9.41369 19.2222
6832 1 5.84623 9.73096 21.2672
6912 1 3.99297 11.204 21.0751
7468 1 6.22476 2.85301 17.5237
1385 1 13.6767 13.4687 17.8532
352 1 7.82852 9.87846 19.7262
7631 1 9.66752 8.08054 19.4856
2284 1 10.1211 9.58213 20.9365
509 1 7.93842 11.8481 20.9385
511 1 9.74383 11.3167 19.58
5545 1 29.5819 22.7821 17.1383
5148 1 31.8606 6.02309 17.5562
4265 1 26.2971 0.306657 17.6151
1225 1 11.7827 9.4478 19.2595
1387 1 11.729 11.4275 21.0082
2666 1 11.7295 7.81107 21.2436
1149 1 13.654 7.96997 19.3019
1228 1 15.0475 9.79183 19.2323
596 1 13.491 9.64032 21.0666
2804 1 15.367 8.05829 20.8795
1878 1 31.6965 33.6514 30.1461
2027 1 17.0376 7.70083 19.0558
2036 1 19.0549 9.32667 19.0352
2028 1 19.1265 7.60844 20.7354
2747 1 17.0543 9.39191 20.7987
2191 1 17.3719 11.3918 19.0246
1948 1 16.9915 5.86132 17.5321
7625 1 4.46222 7.77553 17.4611
2039 1 21.3675 7.73048 19.2937
2114 1 20.5528 9.80423 20.5739
2906 1 22.4549 9.9827 19.2138
4431 1 22.7501 7.5901 20.8901
2828 1 21.2419 11.7798 19.0834
4432 1 22.7823 11.7669 20.9975
5468 1 31.7305 21.1016 17.5943
3626 1 24.3119 7.70143 19.1869
5305 1 26.4528 10.0181 19.5148
4347 1 26.1021 7.62926 20.5335
3552 1 26.0639 11.6613 21.2366
5876 1 24.4436 9.53953 20.844
6108 1 35.4901 13.1937 17.9506
3791 1 24.4574 11.9441 19.0877
2902 1 18.9859 15.0555 17.3238
3007 1 28.2824 9.1047 20.9334
4427 1 28.2796 7.82611 18.8726
4507 1 30.4547 9.8167 19.0653
6029 1 31.8647 7.67719 19.3649
6994 1 30.2075 7.32167 21.0409
2916 1 31.6952 9.46984 21.3701
5226 1 31.9406 11.4621 19.1525
3627 1 29.7016 11.0577 21.2022
4354 1 28.5452 11.1263 18.9222
7785 1 4.33549 15.304 17.4017
7868 1 6.43392 20.2571 17.5414
5946 1 33.3632 8.00009 21.1632
5229 1 33.7416 9.66611 19.4918
6027 1 35.2724 7.86386 19.4258
6026 1 35.2208 9.55155 21.1942
6109 1 33.3346 11.4352 21.2548
5887 1 30.8632 34.8977 31.9209
6907 1 2.50065 11.4913 19.0424
6909 1 0.729813 13.5668 19.0988
6187 1 0.521743 15.2542 20.8606
6987 1 2.35162 15.3203 19.3049
2598 1 2.46482 13.356 20.8768
3625 1 22.9169 7.50457 17.3079
426 1 6.26633 11.535 19.0067
3707 1 24.4535 9.99401 17.8347
7706 1 4.3329 13.2247 18.8898
431 1 5.78913 13.082 20.921
7707 1 4.32048 15.2219 21.1259
586 1 6.52267 15.5613 18.97
1226 1 18.9014 7.21918 17.6364
674 1 7.91167 15.0905 21.1126
506 1 7.86832 13.3714 19.2636
1473 1 9.99771 13.3274 21.0126
520 1 11.8374 14.9245 20.7608
1311 1 9.51409 15.017 19.3742
4619 1 27.7489 34.0326 31.9234
5065 1 30.2206 0.668702 17.6165
2105 1 13.3462 11.2974 19.158
1332 1 15.0866 11.4756 20.9741
675 1 11.4721 13.1793 19.1076
1308 1 15.3746 13.0266 19.2704
2751 1 13.6083 13.3929 20.4357
2189 1 13.6768 15.6488 19.3242
1397 1 15.5963 15.2691 20.6718
6825 1 0.473329 7.74192 17.4064
268 1 9.55905 2.3978 17.5215
6905 1 0.511961 11.45 17.8458
2107 1 19.0038 11.4581 20.7681
2910 1 19.14 13.342 19.496
5319 1 17.0737 13.3321 20.7102
2985 1 17.4381 15.2421 19.3023
2030 1 18.8592 15.13 20.8688
6985 1 0.575476 15.0989 17.588
105 1 5.24204 31.6221 17.7937
3787 1 22.7615 13.4291 18.8551
3796 1 20.8947 13.5096 20.8478
3785 1 20.6828 15.1413 19.0706
2908 1 22.6214 14.9859 20.5845
4905 1 30.3186 30.1233 17.5094
6505 1 0.897999 29.8698 17.53
2273 1 24.642 13.5789 21.0009
4589 1 26.3452 13.336 19.1268
2914 1 24.7146 15.2081 18.8501
6209 1 26.8431 15.2935 20.7657
3639 1 25.4347 32.9741 31.4818
585 1 8.3363 15.283 17.4093
3542 1 24.581 5.94575 17.3256
1467 1 13.4626 17.2727 17.6001
4587 1 28.1453 14.987 18.9169
4512 1 27.9506 13.2523 20.9818
5309 1 30.1819 13.3884 18.9919
5322 1 29.654 14.9132 20.7882
1628 1 17.1626 28.2374 17.561
6107 1 35.5991 11.2509 19.732
6271 1 31.4641 15.4844 19.2562
5869 1 31.4833 13.3303 20.8755
5387 1 33.663 12.673 19.3357
6913 1 35.6881 13.4037 20.9111
6185 1 33.3697 15.1701 17.918
6986 1 35.1953 15.3796 19.309
5388 1 33.2971 15.0409 20.5661
908 1 13.3618 31.6786 17.2035
985 1 11.114 0.389865 17.5874
7545 1 4.26605 4.42427 17.5102
6192 1 0.450687 17.0583 19.3653
7067 1 2.39542 18.4537 19.3083
7787 1 2.46032 16.9469 21.0536
6992 1 0.870478 18.7866 21.2876
3548 1 26.0505 4.03216 17.3637
6988 1 2.39166 16.9835 17.3989
7786 1 4.44882 16.7607 19.2608
590 1 6.57372 17.3118 20.8805
7867 1 6.43686 18.7951 19.05
7794 1 4.58958 18.8488 20.591
1705 1 15.0666 30.1636 17.6901
4382 1 27.1476 35.2236 34.9271
592 1 8.22082 18.8744 21.051
7711 1 8.20565 17.1416 19.3776
667 1 10.0049 18.9238 19.4002
1590 1 10.0728 16.9869 20.9148
591 1 11.6633 17.1078 19.3717
600 1 11.8932 18.6178 21.2918
1465 1 11.8303 19.0973 17.3073
2265 1 15.2165 18.7946 17.763
1470 1 13.5273 18.8857 19.4024
1314 1 14.1401 17.0802 21.2905
2108 1 15.6927 17.3674 19.4216
1318 1 15.8198 19.1363 21.095
1463 1 15.638 15.4321 17.7224
3865 1 22.5283 19.4801 17.5492
7705 1 4.14018 11.2868 17.0659
2990 1 19.1927 17.1901 18.6261
2267 1 17.8423 18.965 19.1713
285 1 19.08 18.9837 20.932
6998 1 17.5077 17.1629 21.0157
4188 1 28.2619 35.6143 17.5321
2745 1 18.9254 3.76299 17.7626
2987 1 22.3822 17.0161 19.1825
3975 1 20.6396 17.1425 20.7357
3066 1 20.9836 18.9915 19.0869
7003 1 22.6837 19.0413 20.6236
905 1 11.136 30.7184 17.4564
7622 1 2.0504 9.506 17.5416
7788 1 6.56511 17.1866 17.3176
3867 1 24.5822 18.9215 18.7031
2992 1 24.5527 17.1318 20.6335
4586 1 26.4466 16.977 18.6191
5472 1 26.6801 18.6853 20.5222
7465 1 4.222 0.599092 17.8377
4667 1 28.2109 19.071 18.8252
5306 1 28.1877 17.1763 20.7434
3822 1 23.9866 35.5487 31.4112
5392 1 29.6801 17.1265 19.0482
5555 1 30.2024 18.8523 21.0875
5467 1 31.6525 18.7403 19.1176
4592 1 31.7455 16.9767 21.2896
4985 1 30.1878 33.5835 17.7974
7627 1 6.53082 6.50454 17.7255
587 1 9.63889 13.0816 17.3493
6186 1 33.5088 17.1253 19.4108
6267 1 35.5021 18.6159 19.8701
6996 1 33.5127 19.0446 21.2434
2932 1 35.3416 16.9739 21.3778
588 1 10.1801 16.7645 17.6124
7147 1 2.37855 22.2836 19.4474
7066 1 0.323881 20.6256 19.3376
7149 1 1.05097 22.0146 21.1153
7070 1 2.82813 20.3776 21.1368
4108 1 28.3352 31.8688 17.4369
7866 1 4.48287 20.8613 19.1759
749 1 6.22214 20.6868 20.8446
7947 1 6.37159 22.2892 18.9722
6353 1 4.37889 22.4895 21.3691
673 1 8.30894 22.4699 21.2562
745 1 8.03789 22.4358 17.3525
7145 1 0.411708 22.2271 17.5157
666 1 8.21174 20.7871 19.5169
747 1 9.89707 22.6423 19.2771
2752 1 9.76559 20.6937 21.2802
1547 1 11.3767 22.2922 21.2008
1466 1 11.7125 20.8394 19.267
7632 1 6.14698 9.74226 17.373
1472 1 13.5955 20.6513 17.384
2192 1 15.1918 20.632 19.3645
1546 1 13.4247 22.4295 19.2472
2760 1 15.571 22.6643 20.6825
756 1 13.4227 20.8135 21.215
5628 1 35.8934 28.2209 17.4685
3145 1 18.7465 22.6201 17.3426
5477 1 19.0977 21.0538 19.4369
2347 1 17.1177 22.7348 18.8696
2186 1 19.2381 23.1038 21.1183
1627 1 17.344 20.9304 20.9112
3305 1 22.7528 30.2687 16.9881
3947 1 22.3573 22.95 17.2042
1639 1 20.8531 20.9876 21.0888
3945 1 20.6868 22.7363 18.8605
3151 1 22.603 21.3618 19.5469
4910 1 23.0376 22.8904 21.1723
4908 1 32.1686 31.8898 17.1913
4590 1 24.45 20.7246 20.8988
3872 1 24.453 22.6069 19.1117
3868 1 26.6382 20.7532 19.2347
4749 1 26.4269 22.7774 20.4354
1340 1 24.6243 34.614 33.6372
2102 1 19.1264 11.333 17.5873
4747 1 28.1116 22.8071 19.0748
4669 1 28.5382 20.5012 20.975
5466 1 29.713 21.1253 19.0646
5547 1 31.674 23.0414 19.2827
6273 1 31.726 20.7999 20.8053
5551 1 29.7934 22.7281 21.0134
5145 1 30.0378 4.08748 17.604
6266 1 33.5292 20.7967 19.2661
5389 1 33.5791 22.5937 20.9649
6347 1 35.2827 22.5732 18.9705
6272 1 35.6064 21.2043 21.0322
2665 1 18.7089 0.453544 17.5234
5865 1 33.5666 0.403144 17.5959
7146 1 0.587728 24.3157 18.9969
7148 1 2.6334 24.2189 17.5745
6427 1 2.48352 26.0243 19.4266
7236 1 2.57195 24.0921 21.2336
6429 1 0.0128406 25.8478 20.9441
5308 1 31.949 13.2864 17.3671
1148 1 12.9377 5.92109 17.5151
7950 1 6.14158 24.3202 21.0023
753 1 3.92244 26.1243 21.2357
7946 1 4.4169 24.0837 19.4715
7227 1 5.9212 26.2584 19.3204
7225 1 4.02139 26.1278 17.5355
746 1 7.74545 24.3776 19.3937
29 1 8.28187 26.2156 20.9044
27 1 9.99968 26.2991 19.4325
830 1 9.92993 24.2751 21.2635
3160 1 11.5097 26.2988 21.5583
752 1 11.7281 24.3983 19.3283
748 1 9.75288 24.2621 17.7471
25 1 8.2553 25.9626 17.5687
826 1 11.4561 26.1381 17.522
1716 1 13.4935 24.6759 21.2678
2346 1 14.8257 24.5619 19.6489
827 1 13.1295 26.423 19.5646
2196 1 15.1379 26.6787 21.1062
1625 1 15.3228 26.7166 17.6576
1548 1 13.8942 24.7666 17.7494
3545 1 20.8585 5.8373 17.418
1632 1 16.8322 26.5479 19.7429
2352 1 18.6834 24.4849 19.1487
2218 1 19.1609 26.3917 21.0931
6404 1 17.5187 24.7022 20.8765
2426 1 18.7785 28.0009 19.2488
2425 1 18.8351 26.4068 17.1008
505 1 8.01223 11.4499 17.6922
3153 1 20.806 24.9214 21.3347
2427 1 20.5434 26.1351 18.8924
3147 1 22.3132 24.0859 19.2524
1551 1 22.268 26.4446 20.4084
5622 1 34.1409 29.8408 18.0593
5548 1 31.5679 24.6485 17.301
3946 1 24.4995 26.265 18.7271
3159 1 24.522 24.8108 20.5558
4746 1 26.5249 24.7502 18.9985
3239 1 26.6483 26.4122 20.7224
4745 1 26.3926 22.7552 17.2337
5556 1 28.0496 24.4023 20.9513
4027 1 28.5543 26.2933 18.8527
4825 1 29.9232 24.3665 19.0675
5629 1 31.382 24.5592 21.582
5546 1 29.8103 26.661 20.8779
4826 1 30.3563 26.9302 17.176
6268 1 35.0782 20.5888 17.5922
5552 1 31.6464 26.2874 19.1322
1066 1 10.0043 6.00981 17.6293
4428 1 28.4691 9.51192 17.5063
6346 1 33.5523 24.7354 19.1649
5627 1 35.4053 26.3996 18.8473
6351 1 35.6911 23.665 20.9751
5631 1 33.7193 26.224 20.8745
5948 1 35.4336 6.27805 17.5014
3225 1 22.4459 26.0845 17.2074
3866 1 24.544 21.2229 17.2928
6432 1 2.44792 27.7642 21.2193
6426 1 1.01739 28.0688 19.3219
6507 1 2.49671 29.7178 19.6422
778 1 0.896661 29.8675 21.5118
5707 1 1.41414 31.5744 19.089
6748 1 2.21 6.02967 17.4095
2988 1 20.8233 17.0337 17.2432
7311 1 6.00879 27.7167 21.1974
7228 1 4.18146 28.0555 19.5009
7309 1 3.93087 29.7197 21.3379
189 1 5.77784 29.7171 19.6869
109 1 5.82317 31.4281 21.4281
7307 1 6.12235 28.0455 17.5948
28 1 7.6847 29.7264 17.7221
825 1 9.86864 28.0814 17.7118
108 1 9.35672 32.1047 17.5514
26 1 7.7629 27.931 19.2624
36 1 9.80608 28.2098 21.1618
7308 1 8.01084 29.9724 21.3052
107 1 9.55598 30.0163 19.2734
112 1 8.8875 31.8359 21.3059
110 1 7.40049 31.2502 19.2762
7396 1 11.2468 30.2551 20.8198
912 1 11.3607 32.1083 19.2908
5068 1 31.8863 2.37618 17.5688
828 1 13.3118 28.0527 17.2209
1626 1 15.4333 28.3485 19.3201
1557 1 13.0986 28.934 21.0423
7318 1 22.7181 8.07448 34.7168
829 1 11.6573 28.1745 19.477
907 1 12.8671 30.0796 19.1242
1715 1 15.2505 30.3221 20.7857
987 1 14.9675 31.9646 19.1354
2345 1 15.2864 22.6669 17.4193
1545 1 11.2891 22.6239 17.4634
2507 1 18.8938 30.0421 17.7274
6908 1 2.50438 13.42 17.4387
1714 1 16.8297 28.7968 21.2482
1706 1 17.0234 30.0534 19.3822
1709 1 19.1181 30.0142 20.6078
1712 1 17.3284 31.5431 20.9735
1707 1 19.0927 32.1185 19.1029
7865 1 4.06657 18.7726 17.7015
2431 1 20.6353 28.1758 20.979
3226 1 22.8265 28.0845 18.8851
2509 1 21.0313 29.9298 18.9783
3232 1 22.7271 29.7749 20.706
7945 1 4.39056 22.8075 17.3827
2428 1 20.7574 28.1368 17.2031
7484 1 13.4205 21.0109 34.7675
2449 1 33.1662 26.0656 35.1361
2513 1 24.8669 27.7934 21.1726
4026 1 26.2255 28.156 18.9256
3306 1 24.9569 29.8596 19.0429
4032 1 26.481 30.0493 20.8375
4109 1 26.5481 31.8032 19.0705
3643 1 34.6678 21.3445 34.312
679 1 10.0527 16.5598 35.2995
5816 1 28.1368 28.2088 20.6429
5713 1 29.9922 28.4951 19.1706
4832 1 31.9701 28.2011 20.8426
4754 1 28.2471 30.0889 19.2378
3307 1 29.8581 29.9676 21.0602
4907 1 31.8537 30.4384 19.5538
3392 1 29.8627 31.7354 19.4644
4116 1 28.0773 31.981 21.2714
4028 1 28.2619 28.1586 17.4086
7948 1 6.34447 24.4328 17.2893
4828 1 32.304 28.2707 17.1295
7226 1 4.51498 29.6442 17.6232
7164 1 28.0099 14.7202 34.2876
5626 1 35.4651 27.9629 20.7916
4827 1 33.5955 27.8638 18.973
5705 1 -0.32303 30.1025 19.6425
5630 1 33.9254 29.6108 20.8472
5706 1 33.8058 31.7346 19.3942
4268 1 28.1811 2.37451 17.6098
7394 1 2.22711 31.8358 21.2701
2348 1 16.7082 25.0192 17.7873
6586 1 0.758758 35.5807 19.0634
6587 1 2.54368 33.8711 19.7202
5724 1 1.99564 35.1928 21.5214
5709 1 0.589026 33.1514 21.204
3308 1 24.7764 31.8143 17.4502
7388 1 5.86897 35.5978 17.6384
7385 1 4.12256 33.8613 17.5911
7306 1 4.0734 31.6094 19.6791
190 1 5.79971 35.6013 21.4961
6674 1 4.00196 35.8399 19.8224
7392 1 5.57994 33.5102 19.4711
116 1 3.85273 33.5338 21.5032
182 1 9.17762 35.2704 17.8318
5228 1 31.9667 9.45845 17.2177
188 1 7.55688 35.316 19.5633
196 1 9.27316 35.4044 20.9291
106 1 9.32954 33.4225 19.6367
192 1 11.0529 35.0879 19.296
986 1 12.9113 35.5208 17.9522
1788 1 15.0729 33.5586 17.3892
1630 1 12.9669 31.8266 21.0281
902 1 11.3152 33.5565 17.4335
187 1 11.0597 33.6112 21.157
3488 1 13.3013 35.2647 21.3733
988 1 14.9578 35.7391 19.3517
989 1 13.4829 33.6189 19.11
3315 1 15.305 33.721 21.2892
1782 1 16.9972 35.4184 17.6532
2585 1 18.7953 33.9017 17.4884
2586 1 18.9649 35.1584 19.6007
606 1 16.7922 35.758 21.7125
2506 1 16.852 33.7359 19.624
2510 1 19.2586 33.4097 21.1228
3385 1 22.5671 33.4747 17.4278
425 1 8.2633 8.35476 17.738
4120 1 21.1872 31.4181 21.1935
3230 1 22.9721 31.5947 19.1293
454 1 20.7907 35.6204 21.3322
2668 1 22.8286 35.5626 19.5381
2587 1 20.7653 33.535 19.1339
3957 1 22.2965 33.8261 20.9238
4185 1 26.4756 33.693 17.3209
3952 1 24.2333 31.4076 21.1814
4186 1 26.5709 35.4044 19.4008
3387 1 24.3388 33.5848 19.2926
1720 1 26.2392 33.5921 20.9927
2511 1 24.5924 35.2696 21.1921
4192 1 28.2699 35.2628 21.211
3388 1 24.4998 35.2131 17.5772
4537 1 19.7049 33.2551 34.4118
941 1 23.4302 32.6709 33.0619
6593 1 31.7084 31.8435 21.3616
4187 1 28.0866 33.6678 19.0856
3258 1 32.1803 34.9368 21.3397
4986 1 29.7635 35.6062 19.29
4906 1 29.7706 33.5932 20.7842
4909 1 31.958 33.4726 19.433
6665 1 0.710973 0.963284 17.3514
6506 1 35.5475 31.444 21.3077
4992 1 35.8062 35.2114 20.6945
5067 1 33.6118 35.3196 19.5203
7481 1 33.894 33.4825 20.9256
5787 1 36.0465 33.401 19.2382
6618 1 2.18615 0.388568 22.9633
5910 1 0.463794 2.2421 23.1828
6671 1 2.33215 2.31625 25.0025
5574 1 -0.0721743 0.261218 24.8191
3406 1 1.83156 35.6603 24.5186
222 1 3.75151 2.47944 23.2865
7552 1 6.18507 0.785838 23.2686
1487 1 5.96998 2.71812 24.6812
4838 1 3.90525 0.612816 25.1071
7963 1 4.29756 2.60409 26.6608
3875 1 6.51027 0.422411 26.1704
35 1 9.25114 0.58258 26.628
273 1 8.02626 2.66837 22.805
5249 1 9.60547 -0.0356451 22.5583
3335 1 10.3857 2.32817 23.2067
5332 1 10.4688 0.335466 24.5856
4439 1 8.51008 2.73377 25.3582
7414 1 8.21634 0.311544 24.5624
1871 1 13.5124 2.89228 21.2065
3816 1 12.3034 2.39897 24.2973
7680 1 12.9805 0.324704 23.5172
918 1 14.751 1.14823 24.9452
1477 1 14.6251 2.18965 23.033
4353 1 15.1973 4.58032 24.9072
7499 1 18.6116 1.91141 22.5778
1157 1 18.9837 0.733349 24.2987
34 1 16.5518 0.677721 23.0753
1801 1 16.9061 2.64684 24.5574
6680 1 21.2096 0.942446 22.8228
2836 1 20.905 2.20299 24.8906
7647 1 23.1983 2.37159 22.9155
210 1 23.1457 0.163221 24.5925
4998 1 24.4568 2.24559 24.8579
5400 1 24.9717 0.696805 22.9389
6514 1 27.0833 2.16501 23.4623
1876 1 28.4384 34.6921 25.0566
6438 1 28.6087 0.00214096 26.2054
3260 1 26.5405 0.804789 25.1353
6601 1 28.5341 0.116147 23.6578
5023 1 28.6912 2.08152 25.2183
5880 1 30.3324 2.00571 23.1805
4916 1 32.8601 0.142227 22.6469
2771 1 30.6822 1.30904 25.9991
2942 1 32.3646 2.11458 24.401
6371 1 35.2393 2.53976 24.9341
4994 1 33.9577 2.40278 22.5536
3730 1 35.3439 0.822889 22.823
5553 1 34.339 0.395436 24.7872
1317 1 1.96372 4.33533 23.0889
6120 1 0.348116 5.91252 23.2222
7391 1 0.13855 3.84998 25.4062
2272 1 1.80349 6.32032 24.9934
7724 1 0.586534 8.20591 25.2781
4436 1 0.32248 5.81555 27.1779
4155 1 4.01321 4.38015 24.9164
7546 1 3.81132 5.882 23.0631
7479 1 5.933 4.6186 22.6791
3878 1 5.67508 6.17401 24.7412
357 1 4.09712 7.96533 24.8291
1068 1 5.92464 8.09011 23.0351
5009 1 6.0255 4.29998 26.4816
6764 1 7.84656 6.22995 23.0574
3656 1 9.31474 4.36261 23.4244
2758 1 9.91861 6.6279 24.714
1147 1 11.6234 6.06861 22.9956
1949 1 13.2355 4.41247 23.0972
1791 1 11.1904 4.54849 24.9465
3726 1 13.1795 6.04126 24.8529
5653 1 14.8787 5.28362 27.0963
7010 1 15.2119 5.78181 22.8194
201 1 17.0793 3.86312 22.4591
271 1 18.9434 5.88256 22.3056
1152 1 17.2736 6.00997 24.2786
6381 1 18.798 7.67581 23.8108
5078 1 18.8407 4.00012 24.1299
2748 1 20.9535 5.8257 24.0808
6841 1 20.9352 3.40615 23.051
2838 1 22.7374 5.74136 22.6647
1010 1 22.974 4.19647 24.5528
6114 1 20.9048 4.343 26.2936
3467 1 24.7956 4.00154 22.8837
1143 1 25.0228 5.99243 24.2963
4845 1 27.0073 5.41708 22.816
3499 1 26.9609 4.32121 24.9873
3422 1 25.3642 6.79337 26.8007
4673 1 28.8971 3.97484 23.7997
2991 1 30.8994 3.94257 25.593
6831 1 28.9079 5.16956 25.9412
1095 1 30.0926 5.72608 23.2305
4107 1 32.0036 4.2127 22.9266
4526 1 31.3615 6.13335 24.9006
4762 1 35.2972 5.81132 25.1577
4271 1 33.5169 4.38149 25.056
6038 1 33.5389 6.29754 23.0704
1333 1 35.3792 4.33832 23.3048
6765 1 35.592 8.55832 26.6333
7547 1 2.23083 7.6972 23.1305
3989 1 2.21988 10.2005 25.0593
7873 1 0.674648 9.6598 23.2231
6370 1 0.365598 12.0129 24.2011
518 1 2.49025 11.8669 23.2405
4426 1 0.24233 10.8043 27.2859
6689 1 2.30777 12.2041 26.5201
6756 1 3.76139 9.79225 22.9801
6633 1 5.93544 9.95402 24.5091
355 1 5.89748 11.529 22.7488
7409 1 4.17556 11.7377 24.6522
757 1 4.15252 11.0342 26.8869
7229 1 8.04699 8.54024 24.5707
2593 1 11.7779 7.99794 24.9002
7313 1 7.89407 10.2386 22.4379
6035 1 9.80423 9.95597 24.3648
7476 1 9.78816 8.05558 22.6218
7712 1 9.93101 11.6084 22.5417
6360 1 7.78655 11.5317 24.75
432 1 11.8152 9.55117 22.8645
6395 1 12.0148 11.6047 24.4683
603 1 10.0999 8.08331 26.7782
6540 1 6.46883 9.91479 27.0736
4780 1 15.3388 7.56281 24.8252
4870 1 13.5757 7.74613 23.0173
3472 1 15.4843 9.77706 22.5976
917 1 13.6321 9.71515 24.8213
5950 1 13.7026 11.5727 22.9439
6270 1 15.5213 10.0096 26.5836
913 1 16.8943 7.78841 22.58
6851 1 19.0069 9.51099 22.5291
7637 1 16.9541 9.47604 24.778
2865 1 17.1267 11.62 22.3043
5234 1 18.7738 11.2379 24.3758
1071 1 20.6702 8.13209 22.4707
6190 1 22.8404 7.81456 23.7746
5076 1 20.8368 8.03685 25.3825
3800 1 22.5041 9.74825 22.216
3077 1 20.9 11.3634 22.3324
3731 1 21.6255 10.2361 24.5573
4611 1 25.1915 8.25587 24.8351
3269 1 24.7254 7.29232 22.4351
910 1 24.732 9.9664 23.4516
4515 1 26.4129 9.30794 22.2089
7095 1 27.2891 6.89129 25.1691
4506 1 26.089 11.7775 24.1834
3071 1 27.7682 11.4409 22.609
5310 1 28.6789 7.17518 22.9048
5152 1 27.4056 9.32852 24.6713
6031 1 29.5892 7.64875 25.0222
3079 1 29.0811 9.43186 23.0063
5719 1 31.5637 7.8639 23.0354
2290 1 28.9604 11.6272 24.6095
1718 1 35.4177 7.74391 23.8013
5988 1 33.2171 7.70955 25.0208
7485 1 31.1154 10.0967 23.7435
7242 1 33.4495 9.4972 23.2041
3711 1 33.8139 10.7519 26.6472
521 1 35.3121 9.96705 24.6532
225 1 33.373 11.6749 23.8164
2612 1 35.3429 11.566 22.6616
6040 1 0.784795 13.8526 22.5933
1040 1 2.6844 15.3493 22.7296
7789 1 0.394202 15.7676 25.1098
4717 1 2.10731 13.8944 24.6041
7710 1 34.4951 14.9985 26.1207
351 1 4.4741 13.5253 22.9124
2270 1 6.17543 13.3299 24.5152
6749 1 6.00497 15.5816 22.4477
3475 1 4.80118 15.6966 24.5215
4123 1 4.58268 13.6962 26.0457
291 1 6.46713 15.1286 26.2613
593 1 7.48445 13.5305 22.7976
3477 1 10.253 13.0423 24.6641
3080 1 11.8661 15.0711 24.7279
1873 1 9.81355 14.9192 22.8378
3720 1 7.83402 15.0737 24.4348
3493 1 11.8221 13.5421 22.8148
310 1 11.9173 13.2333 26.2054
1391 1 15.6904 11.7649 24.4268
4203 1 14.0269 13.4759 24.4195
6511 1 13.5242 15.1571 22.6048
1918 1 15.3698 13.5417 22.5885
2926 1 15.8315 14.9857 24.6884
2183 1 17.394 13.3443 24.2937
5881 1 19.0876 13.1058 22.5471
3906 1 19.5026 15.2208 24.8816
1233 1 17.3668 15.0613 22.7133
7629 1 23.098 11.9996 23.7628
3953 1 20.8553 13.1621 24.0782
2026 1 22.7128 13.9505 22.6613
4132 1 22.9261 15.7297 24.2646
1559 1 20.4076 14.9263 22.5342
6914 1 24.448 10.6524 25.5908
1819 1 24.4917 13.7109 24.8274
1730 1 26.2133 13.902 22.5974
4433 1 24.6685 15.5447 22.6003
4521 1 27.7304 13.8365 24.4617
3329 1 26.0629 15.5578 24.8212
5233 1 28.0534 15.736 22.7633
5266 1 27.8223 15.4941 26.5166
4609 1 29.4413 13.3628 22.8629
5391 1 31.2259 14.997 22.6684
6193 1 31.5996 13.0844 24.2598
3008 1 29.7596 15.2156 24.682
1388 1 31.461 14.9184 26.5155
429 1 35.6236 15.2433 22.9862
6112 1 33.9023 13.6189 22.7674
4666 1 34.9796 13.092 24.624
5641 1 33.0321 14.9522 24.4362
5549 1 33.0572 13.237 26.4974
6106 1 35.522 12.6737 26.956
131 1 0.509583 16.8396 23.0426
5469 1 2.52173 17.0066 24.6541
6517 1 2.39572 19.0016 23.101
6524 1 0.777468 18.6509 25.0978
3180 1 2.91155 18.5434 26.5323
5337 1 0.984035 17.1536 27.2828
4194 1 4.09025 18.8291 24.6698
5474 1 6.48944 17.1684 24.5659
1441 1 4.36716 17.304 22.5589
2044 1 6.1681 18.6866 22.7521
2912 1 4.69262 16.878 26.401
7884 1 8.20894 17.2803 22.743
7800 1 10.395 16.9243 24.8601
7952 1 10.2223 18.4611 23.0072
670 1 7.92285 18.8385 24.8061
677 1 12.2025 18.4264 24.491
1883 1 11.6441 16.6663 22.9298
7076 1 10.4573 18.5771 26.2419
4292 1 15.9953 17.0459 22.7432
5710 1 13.6782 18.9544 22.8779
5404 1 15.5191 18.8318 23.9773
1885 1 13.8078 16.8311 24.2769
4365 1 15.6849 17.1342 26.3401
627 1 14.1592 18.6417 25.9129
517 1 19.1209 17.3451 22.5423
3951 1 17.7175 17.1881 24.9442
2266 1 17.5119 19.0665 22.7003
1490 1 19.4363 18.8107 24.9757
4594 1 20.6372 16.8493 24.2235
3786 1 20.8947 19.1777 22.6092
5473 1 22.5814 17.1464 22.1735
3152 1 23.0685 19.4843 24.5445
3235 1 24.4614 18.9293 22.3731
955 1 24.6533 17.313 24.4046
2703 1 25.9901 17.3393 22.4233
5398 1 26.2569 17.4937 26.4858
7002 1 26.0895 19.0705 24.4151
5904 1 24.2486 19.206 26.6793
5312 1 28.1195 16.7601 24.5928
3792 1 28.1538 18.901 22.6294
4597 1 30.1923 17.1876 23.0356
4204 1 30.2394 18.6453 24.8929
3167 1 29.9716 16.9162 26.3358
7955 1 31.8515 16.9975 24.5221
4671 1 31.6432 19.0202 23.0544
2690 1 28.2744 18.9433 26.3717
6113 1 35.2182 17.1712 24.5354
6269 1 35.5055 19.3319 22.7208
5506 1 33.6932 16.6837 22.8759
1337 1 33.7287 18.9103 24.0475
7342 1 33.2515 19.0935 26.6019
6761 1 30.7064 19.2496 27.063
1389 1 2.6009 22.3095 22.9875
7073 1 0.486202 20.7048 23.2304
6240 1 2.42679 21.0818 25.2146
7319 1 0.114174 20.5473 26.6541
6352 1 0.133512 22.2231 24.815
5734 1 4.57855 22.2442 24.9076
5416 1 34.8087 20.723 25.0376
7471 1 6.48458 20.8813 24.8826
3486 1 4.4047 20.4447 22.942
6990 1 6.54042 22.388 22.676
7951 1 6.92304 23.6239 24.6201
6711 1 6.36198 22.7183 26.9246
7871 1 8.13048 20.5488 23.0158
672 1 9.94786 22.4194 23.0019
4356 1 10.2229 20.2215 24.4829
5877 1 8.29419 21.935 25.2667
5313 1 9.33503 24.037 25.3472
2757 1 11.6936 24.5482 25.8726
832 1 12.0331 20.734 22.8858
2073 1 14.0469 20.9359 24.5422
2308 1 15.5405 23.1325 24.1719
7434 1 13.3068 22.7404 22.9066
6670 1 15.4318 21.268 22.6742
1636 1 15.6112 20.3182 26.3634
2702 1 19.3434 20.8695 22.9111
2430 1 17.2721 22.7432 22.7628
3067 1 19.0654 22.5709 24.6963
5179 1 17.1655 20.7878 24.4423
6451 1 17.0919 22.9227 26.3717
216 1 21.2039 21.1571 24.5388
3146 1 21.2706 23.0864 22.7254
6059 1 22.6985 21.1202 22.6351
6365 1 23.1942 23.1174 24.173
4029 1 23.0421 21.1917 26.3152
5491 1 24.9357 22.5598 22.6017
2287 1 24.8418 20.9735 24.3179
4830 1 26.5382 20.7466 22.6867
2038 1 26.5179 22.4378 24.6128
3949 1 28.2609 22.5641 22.6099
7082 1 28.3262 20.6965 24.9064
6355 1 29.7285 20.6895 22.9647
7397 1 29.7107 23.1555 24.5442
37 1 31.7084 20.989 24.7799
2874 1 31.292 23.7469 26.4424
928 1 31.6231 22.2941 22.9225
624 1 28.1019 22.8502 26.5242
4039 1 35.4414 22.6293 27.0091
6430 1 33.4899 20.8447 22.9902
6349 1 35.0528 22.6205 23.2485
6435 1 33.2012 22.7623 25.147
6860 1 32.4394 21.3681 27.169
1794 1 2.15912 26.2582 22.6856
7744 1 0.466258 24.3265 23.0553
3321 1 0.192709 26.2144 24.3689
7709 1 5.06089 24.6084 25.8507
6774 1 7.62646 25.0314 26.5803
114 1 4.70978 23.8305 23.2442
2848 1 5.72555 26.0839 22.7555
2776 1 3.63757 25.5748 24.166
3892 1 7.66607 26.3069 24.3093
5242 1 11.2301 22.3123 24.8213
1001 1 8.09904 24.387 22.7981
2276 1 9.73478 26.1686 22.8945
2190 1 9.84679 26.2102 25.4943
1553 1 9.21154 28.5572 24.4588
4835 1 12.4119 26.4225 25.0763
2677 1 7.83253 27.8788 22.4062
751 1 11.7854 24.4041 23.1139
3815 1 13.5007 27.1289 23.1174
4281 1 15.6905 24.5233 22.3316
7247 1 15.5141 26.7331 24.7466
2298 1 13.9803 24.7331 23.81
1398 1 13.7344 27.2246 26.5719
7730 1 17.456 25.0498 24.3046
2521 1 19.3815 24.569 23.0095
294 1 16.9983 26.7618 22.6239
5714 1 18.9679 26.7933 24.5052
3959 1 19.1901 24.6095 26.1682
698 1 17.3885 26.1121 26.3214
764 1 21.147 24.7175 24.7673
4688 1 20.8901 26.7216 23.0669
3812 1 22.953 24.904 22.6491
4223 1 22.8999 26.3558 24.5268
993 1 25.454 24.7995 24.4012
3076 1 24.6332 26.6322 22.9256
5403 1 26.2937 24.5297 22.2766
3069 1 26.9951 26.5264 25.2686
1084 1 27.7394 24.2924 24.5268
7883 1 27.882 26.2772 22.8292
4750 1 29.7673 25.1269 23.1035
5478 1 31.982 26.3983 22.8531
7329 1 29.4889 26.7198 25.0804
2207 1 29.0718 24.965 26.3729
1158 1 31.737 26.3037 26.1496
4596 1 31.6948 24.6804 24.3088
2590 1 35.3591 24.041 25.0338
6861 1 33.5993 25.9786 24.6124
6434 1 33.4525 24.3035 22.7684
7168 1 35.2084 25.7834 22.72
7590 1 35.6294 26.1612 26.4552
7874 1 33.5341 24.6543 26.7708
4231 1 4.29393 27.8047 22.8777
4035 1 2.07385 27.5007 24.7293
4481 1 0.189944 27.7574 22.5321
63 1 0.495304 29.3578 24.748
113 1 2.43901 29.2278 23.1784
5550 1 2.95525 30.7908 25.1902
5158 1 3.88839 28.5655 26.1343
7401 1 5.17911 30.838 25.2718
4919 1 6.20816 29.3815 22.6548
2680 1 5.90322 28.0021 24.7769
7162 1 7.36159 30.2498 25.2806
2913 1 8.34544 27.9532 26.5629
7232 1 7.28402 31.6484 23.3834
7872 1 9.89568 30.3474 22.9542
5017 1 9.4372 30.1453 25.9624
909 1 6.93254 33.3627 21.1755
4990 1 9.04023 32.056 24.6055
32 1 11.5623 32.1559 23.059
3550 1 11.7937 30.6411 25.1689
2359 1 11.5459 28.6136 22.9089
4620 1 13.7574 28.8065 25.0281
1710 1 15.2964 28.5562 23.1438
7390 1 13.3628 30.2349 23.215
916 1 15.8916 30.2377 25.2445
1874 1 17.1578 28.2764 24.5569
7234 1 17.1028 30.298 22.906
1711 1 18.8775 28.5729 22.4569
3956 1 18.9 29.808 25.0002
915 1 18.99 31.898 23.0952
689 1 18.7775 27.8761 26.7347
7271 1 17.1976 32.0643 25.1055
2601 1 20.9749 28.5299 25.0378
2432 1 22.7043 28.1677 22.3737
7444 1 22.5571 30.0601 24.278
2676 1 20.7132 29.7342 22.8626
6778 1 20.752 31.843 24.7535
39 1 22.6484 31.9023 23.0084
4918 1 26.4112 28.593 26.8599
3955 1 24.2954 29.8426 22.8843
4106 1 26.4369 28.4207 22.9841
2852 1 26.0522 29.9834 24.6012
5804 1 24.892 28.0645 24.7847
3390 1 23.9944 31.675 25.0071
4535 1 26.2322 30.9255 26.9412
2286 1 28.2399 29.5786 22.7699
2433 1 28.3239 28.5926 24.7557
7726 1 31.9181 29.8063 22.7027
4112 1 30.1941 27.9826 22.757
7421 1 30.3805 29.6436 24.3585
852 1 30.5508 28.5643 26.4936
6859 1 32.4492 28.5683 24.6765
4987 1 29.6726 31.4771 23.0889
6512 1 33.6967 27.9851 22.6839
684 1 33.9276 30.0239 24.7341
5497 1 35.5054 29.6626 23.0563
7230 1 35.173 27.8284 24.745
7469 1 35.7749 31.3669 24.3983
148 1 33.6332 31.3581 22.7304
3819 1 33.5609 27.7943 26.6124
6509 1 1.31003 31.5392 23.4948
4191 1 -0.111208 35.2153 23.2104
6938 1 2.0338 33.739 23.1183
3633 1 -0.0537678 33.4129 25.2421
6755 1 0.000579382 35.7851 26.8357
7557 1 4.20103 31.3927 22.991
7399 1 4.17217 35.7015 22.882
6589 1 2.76536 33.0734 25.1439
5563 1 5.45858 33.1717 23.1041
6515 1 5.28218 35.3757 25.0473
7386 1 6.93802 35.0363 23.3414
136 1 11.6087 34.9752 23.3156
5633 1 7.06979 33.3279 24.7675
6208 1 9.1727 35.0276 24.7414
445 1 9.0789 33.7286 22.8252
1735 1 15.1885 31.5942 23.2044
4790 1 13.2396 32.518 24.9847
7152 1 11.0089 33.4443 24.9354
1558 1 13.2801 34.8783 25.1505
3505 1 14.7807 35.6317 23.2088
3401 1 13.5785 33.5655 23.1505
5434 1 15.5987 33.7337 24.5288
3394 1 17.1034 35.6935 24.4685
2596 1 18.93 35.5559 22.8763
4771 1 18.793 33.9491 24.7331
1866 1 17.1451 33.4419 22.8538
522 1 20.8376 35.8407 24.393
4189 1 22.9123 35.3547 22.5058
5402 1 21.0269 33.546 23.0602
3879 1 22.8149 33.8593 24.6831
6110 1 26.2565 31.4518 22.683
4130 1 24.9896 35.1814 24.5947
4115 1 24.676 33.2891 22.7041
6281 1 26.6145 35.539 22.7807
7240 1 26.111 32.8439 24.4854
7259 1 26.6776 35.0117 26.3444
7728 1 28.1686 31.2049 24.9429
1493 1 27.9226 33.5713 23.1094
5957 1 30.4078 35.1244 22.6471
3880 1 32.0894 31.6289 24.9401
1643 1 30.3162 33.358 24.6783
7316 1 32.3482 33.3803 23.1034
4434 1 32.5614 -0.468162 26.4096
2201 1 30.4216 35.9624 25.081
5174 1 34.4039 35.1706 22.5313
2949 1 32.67 35.3207 24.3356
1476 1 35.1674 33.264 23.1332
3654 1 34.985 35.145 25.3732
4059 1 2.54248 0.0157278 28.0556
991 1 -0.136673 0.437521 29.1618
7472 1 1.70225 0.83527 30.5213
7176 1 0.814514 1.93314 26.8155
3881 1 2.23311 2.86043 28.5009
7489 1 -0.095195 2.62989 31.2238
1972 1 3.46845 36.0336 30.1977
51 1 4.96462 0.30309 27.8865
1146 1 3.75988 1.93087 30.2055
389 1 5.71867 3.74844 29.8081
996 1 7.53164 -0.187115 28.648
6318 1 5.89792 1.13127 29.9939
2055 1 6.6596 2.01031 27.7307
115 1 9.65961 2.85568 28.5205
2833 1 7.79829 2.22273 29.9155
1401 1 11.1046 0.618576 28.5296
7408 1 10.0422 2.67002 31.1401
7474 1 11.7565 3.93647 28.0628
7742 1 10.889 2.42383 26.2861
2933 1 15.3229 2.62702 26.9297
6067 1 13.2466 1.78212 27.847
3114 1 13.302 3.73371 26.0709
4036 1 14.1736 -0.0571889 31.3483
6442 1 15.7992 1.19434 29.8848
835 1 19.3375 2.92325 26.3706
3078 1 17.2698 2.2223 28.3019
4351 1 17.5216 0.972068 26.1884
2746 1 19.2116 3.13484 29.6843
1099 1 19.4627 0.907856 28.0597
2938 1 18.4825 0.847435 30.4856
433 1 22.9399 2.65217 26.3227
845 1 21.3403 0.621504 26.5057
4610 1 21.2887 0.677404 29.306
4219 1 20.8555 0.473564 31.9792
995 1 23.0347 1.1006 31.2044
4276 1 23.6049 3.27463 29.5591
3876 1 21.3467 2.69241 30.8568
6555 1 23.5583 1.0598 28.0635
2198 1 21.3657 34.4671 28.6306
5918 1 24.9389 0.100097 26.3703
2614 1 26.8756 0.913142 27.4537
6149 1 25.2796 1.38449 29.756
4429 1 26.2399 -0.53081 30.4665
6636 1 25.2465 3.47242 31.1414
769 1 25.521 2.67487 27.4091
7668 1 26.6056 3.29943 29.4339
6673 1 29.8712 2.98594 27.5628
4034 1 31.6979 0.786892 28.2149
6477 1 27.3091 2.07133 31.3716
7721 1 29.2143 0.950406 28.3043
4799 1 29.1935 3.76319 30.2852
6216 1 30.0188 1.60253 30.4302
5870 1 33.0243 2.4169 26.7217
5711 1 35.1446 0.827661 26.9976
841 1 34.1824 -0.0270692 28.8582
5578 1 34.4833 2.35541 29.043
4752 1 32.8718 1.18192 30.9136
6845 1 31.8396 2.88914 29.2828
7877 1 33.5694 3.45202 31.3179
4206 1 35.435 3.72841 27.0912
5716 1 4.48567 5.03032 30.934
4524 1 0.0466382 3.76519 29.1473
200 1 2.20885 5.63443 28.8821
6853 1 2.19257 4.21892 26.6506
4682 1 35.4115 6.86336 28.684
6277 1 1.67132 7.65355 27.197
682 1 4.015 7.3567 29.1412
1265 1 3.72936 6.23925 26.622
6045 1 6.55089 5.80863 30.3546
3025 1 4.18955 4.36892 28.1285
510 1 5.87619 5.97044 28.0159
1232 1 6.48144 7.81444 26.0363
4603 1 8.88087 6.8524 30.4272
5188 1 7.91542 5.57562 25.6133
5075 1 7.83289 4.3696 28.3997
6473 1 9.59259 4.40842 26.7
1872 1 11.5832 6.62025 30.3842
1601 1 10.4873 5.90276 28.3634
5481 1 10.7464 4.55055 30.1473
1094 1 8.06118 6.8653 27.7934
7077 1 14.2921 3.59948 28.9665
7588 1 11.7935 6.15009 26.6969
430 1 14.9853 5.78531 29.958
3396 1 13.3685 6.15898 28.5201
6844 1 15.4252 7.5531 27.7979
1646 1 12.2703 5.98542 33.1295
2686 1 19.372 6.28615 25.6955
5800 1 17.4101 4.69267 26.3384
6935 1 17.4133 7.48372 26.6345
759 1 16.5221 3.4774 30.8202
7393 1 16.6833 4.62776 28.7465
4675 1 19.121 5.62745 27.9901
220 1 19.7355 8.37891 28.4745
2705 1 18.3949 5.42166 30.4464
2869 1 17.6664 7.25869 29.2728
7495 1 21.3474 6.66536 27.3739
6301 1 23.2441 6.22227 25.4837
594 1 21.4464 2.87663 28.2801
3669 1 21.7265 7.1818 29.5837
465 1 24.9295 4.55582 26.0095
3325 1 23.0839 5.00288 27.4887
2560 1 21.0483 4.84912 29.5003
2839 1 26.8095 5.23009 27.3935
1474 1 25.1639 5.0575 28.965
3011 1 23.5749 7.02704 28.2739
5406 1 27.5785 3.28983 27.1165
5958 1 30.8603 6.27028 27.8326
4450 1 31.2128 5.17633 29.9626
2063 1 29.0977 5.1578 28.6445
1502 1 32.3571 4.57356 27.7349
7714 1 33.8404 5.75423 26.896
7273 1 34.4773 4.73015 29.2528
1960 1 35.678 4.69507 32.6346
7964 1 32.6817 6.95264 29.4605
6770 1 34.4767 8.57543 30.0101
6800 1 33.8136 5.95114 31.1992
2115 1 1.49271 7.839 29.5576
5722 1 1.99377 9.79856 28.4591
639 1 -0.142264 8.98894 28.6586
5425 1 0.265884 12.7235 28.7175
2608 1 2.06729 11.2127 30.0846
283 1 3.62273 13.24 28.3026
3641 1 4.34281 9.88192 28.8953
4269 1 3.96481 8.594 26.8447
5886 1 5.9202 8.28464 28.6612
5098 1 6.4848 10.442 29.4454
7736 1 6.31024 12.1253 26.6716
4475 1 8.4949 9.12282 28.2574
70 1 10.3159 11.2112 26.213
3555 1 10.2068 10.5538 28.3003
4049 1 9.6563 11.182 30.5443
7796 1 8.24715 12.1006 28.2712
2185 1 12.1317 10.0841 30.4697
5659 1 11.7176 8.21562 28.6527
6150 1 10.0284 8.9161 30.2234
7713 1 13.6266 7.75098 26.5386
5879 1 13.5081 7.86103 29.983
5960 1 11.9698 9.75325 26.533
2364 1 13.6526 9.77865 28.5818
4280 1 17.4118 11.6328 29.7773
6919 1 15.965 7.81375 30.6912
7672 1 15.4316 9.85882 29.9662
831 1 18.9098 9.35481 26.4822
2602 1 19.7179 7.30573 31.0352
763 1 16.9541 9.41803 28.1095
1881 1 18.2084 9.17938 30.296
1231 1 18.9588 10.6304 28.5047
2829 1 23.1974 8.7843 25.8226
5959 1 21.466 9.44867 27.7906
1792 1 21.3654 11.6455 30.3833
2589 1 22.9165 9.13315 30.0999
1110 1 23.1545 11.3523 27.9196
1509 1 23.7911 6.0109 30.5473
7957 1 20.3982 11.0912 26.2804
3795 1 24.1459 9.3755 28.1631
7405 1 24.2919 10.965 30.0912
457 1 26.4836 9.04542 26.9945
6829 1 25.9592 9.39073 29.509
374 1 26.755 11.5598 30.4675
80 1 27.444 11.0618 26.1269
1478 1 27.2797 7.04451 28.5471
1241 1 28.6421 7.50844 27.0035
4214 1 28.9864 7.34897 30.0781
7013 1 28.4891 9.34886 28.6769
4593 1 29.4721 9.75476 26.3125
5037 1 31.2854 8.20173 26.4272
6289 1 30.1839 10.5664 29.7902
1891 1 32.2809 10.6579 28.4456
4793 1 30.7819 8.48755 28.8484
7882 1 33.5176 8.34407 27.6386
3310 1 35.135 10.7581 28.7928
1663 1 -0.115731 10.1399 31.0368
844 1 33.6891 10.7609 30.4789
3810 1 0.616324 14.3789 26.948
2223 1 1.81569 14.9859 28.7057
1508 1 2.3956 13.3772 30.2551
3808 1 0.886954 16.4367 31.6189
5805 1 2.47601 15.7106 26.5042
5232 1 4.5679 15.4373 28.1217
3809 1 6.57493 13.6653 28.5067
4212 1 6.05772 15.7492 30.2206
5520 1 4.76716 12.9401 30.015
7725 1 8.42436 13.407 26.3495
2454 1 9.78727 14.9425 26.1196
5002 1 8.87846 13.403 30.3449
5340 1 8.54048 15.0193 28.0245
38 1 10.101 13.4154 28.0797
3484 1 12.0125 14.964 27.7228
4277 1 10.4348 15.2411 30.1157
46 1 11.9224 13.2605 30.1097
135 1 13.7742 11.623 26.2999
5356 1 15.8697 13.0235 26.3428
2139 1 15.3456 11.5093 28.3949
437 1 12.2847 11.8344 28.3363
4154 1 14.0066 12.0365 30.178
287 1 14.1185 14.6667 26.0864
1392 1 14.1442 13.3955 28.1916
7589 1 16.0882 13.1042 30.2668
6189 1 17.2982 11.3365 26.7539
7330 1 17.3111 14.9422 26.3376
2064 1 17.273 13.4932 28.2057
6690 1 19.2434 13.2333 26.3555
427 1 19.8509 14.9528 28.8433
4561 1 17.4727 15.0853 30.3302
118 1 19.0971 13.3854 30.6027
7268 1 21.4494 15.108 26.2213
5230 1 22.4329 13.1244 25.8589
4379 1 20.1791 12.5534 28.5372
7241 1 23.3135 13.2576 30.3998
7500 1 21.8562 13.7345 28.5151
4126 1 21.6426 14.811 30.6442
7078 1 26.4002 13.372 26.209
2915 1 24.3947 15.6996 26.6136
6678 1 25.8576 11.5409 27.9386
3572 1 24.4332 13.292 28.2095
1323 1 26.2028 15.1394 27.9711
5565 1 25.6958 13.9835 30.147
197 1 27.7044 13.5208 28.3755
6205 1 29.3244 13.0678 26.2357
3241 1 28.8305 11.3135 27.8473
7988 1 31.5551 12.4374 30.5002
3504 1 30.9427 12.6534 28.0241
6916 1 29.3563 15.3701 28.4343
1549 1 31.2884 14.9046 29.9972
6837 1 29.5723 13.3084 30.031
6047 1 31.5142 11.2644 26.1649
7969 1 33.3593 13.8668 30.7686
1489 1 33.218 15.2686 28.4412
7572 1 33.4553 12.6895 28.684
7340 1 0.599407 14.4513 30.5261
7504 1 35.6118 14.5181 28.468
6146 1 35.4148 12.5002 30.7287
7795 1 35.4837 18.6594 26.3964
1811 1 3.13285 17.1965 28.459
5395 1 3.56596 15.6777 30.5386
1405 1 0.291792 18.9606 28.7526
3596 1 1.78883 20.4577 30.0248
7328 1 0.346987 16.6875 29.3922
7658 1 6.69877 18.331 26.64
6315 1 4.58341 17.9127 30.1852
6699 1 6.68044 16.6595 28.1354
5635 1 4.95032 19.2109 28.1344
5596 1 6.83678 19.2534 29.257
2288 1 8.51127 16.8233 29.6634
1413 1 4.24311 20.3912 30.6323
5802 1 8.48762 16.8147 25.9227
6906 1 12.1728 16.5928 26.2968
6433 1 8.68269 18.6297 27.8228
4519 1 10.4182 17.0171 28.5194
1192 1 12.4969 18.3455 27.8477
2986 1 12.847 17.6054 30.3105
2787 1 10.8706 19.0607 30.0442
5730 1 15.6375 15.0162 28.7809
607 1 13.5399 15.3566 29.7196
7420 1 13.8904 16.519 27.7701
1895 1 15.0378 18.8501 28.166
3973 1 15.268 17.2666 29.7428
2525 1 13.3108 20.0159 29.7067
5252 1 18.7834 16.6204 27.238
2626 1 17.2349 18.8275 26.8071
669 1 17.0423 16.622 28.7177
2365 1 19.0891 17.2061 30.2689
7715 1 19.1834 18.8943 28.4155
3487 1 17.1994 18.9232 29.342
1248 1 22.8229 17.3191 25.9151
2187 1 20.7143 18.0275 26.6738
5090 1 21.2617 16.8146 28.7117
3478 1 22.8392 17.4808 30.1692
2701 1 20.7085 19.2451 29.8187
2349 1 22.6849 19.3269 28.1882
6232 1 23.5175 15.2751 29.1769
4294 1 27.8279 15.3064 30.1814
1239 1 24.4485 18.7618 29.8783
2040 1 27.0798 18.4196 30.4346
3709 1 24.0728 17.4159 27.9308
6455 1 26.2427 19.2389 28.0519
4400 1 28.2549 20.3849 30.8009
5083 1 27.9013 17.1835 28.0324
2520 1 29.4432 18.8308 28.9327
2517 1 29.9259 16.8175 30.583
5173 1 32.6285 16.6382 30.2743
526 1 31.3075 17.2127 28.4459
3399 1 28.1982 20.646 28.1919
5317 1 35.5305 16.4873 27.4361
3480 1 33.4925 16.9158 26.3753
5715 1 34.8004 18.2815 29.0669
5010 1 34.9681 16.1027 30.4607
516 1 32.8136 19.2146 29.584
6134 1 1.12027 22.859 26.8273
1085 1 2.56451 20.6293 27.679
7673 1 2.34549 22.8917 29.3936
3887 1 0.262367 21.4979 28.7049
529 1 4.69534 20.5912 26.4685
3476 1 3.31131 23.6305 26.7954
4371 1 4.35438 22.0653 28.3183
5001 1 6.76108 22.0502 29.2543
780 1 7.15141 20.443 27.2411
1258 1 4.88115 23.1753 30.2725
5080 1 4.77169 24.5896 28.4979
3257 1 9.78235 21.1931 26.6829
133 1 12.1549 20.3433 25.9966
1900 1 11.9332 22.3853 27.1653
1309 1 11.3864 20.5302 28.2888
6922 1 8.78965 20.6125 29.015
2706 1 10.2727 22.5686 29.3523
7790 1 8.46701 22.8915 27.7848
1414 1 13.6494 22.7117 25.6538
6032 1 13.5507 20.7583 27.6785
7585 1 15.1033 22.5701 27.518
4528 1 12.9836 22.4293 29.2582
52 1 15.0767 21.888 30.221
3395 1 18.5799 20.7243 26.2277
4796 1 17.1552 22.9107 29.8937
117 1 16.9598 21.1131 28.0279
4715 1 19.0555 22.6446 27.7259
7652 1 18.8794 21.2934 29.4781
84 1 19.9647 23.5158 30.0176
5956 1 21.1488 22.7605 26.2682
4031 1 21.0563 20.2703 26.5645
2624 1 21.1967 21.3789 28.7348
3339 1 22.9378 23.1416 28.6471
6598 1 23.4154 20.872 30.0685
1827 1 24.8228 22.9475 30.5923
4514 1 24.9798 23.2711 26.1431
468 1 24.7633 21.8683 28.3684
777 1 26.1734 21.2285 26.44
4040 1 26.103 20.8553 29.8432
7231 1 26.2429 24.6502 29.7922
5755 1 27.3548 22.5625 31.3966
7898 1 30.2648 21.2821 26.4296
4530 1 29.4703 22.0967 30.1489
1009 1 30.7118 19.8595 30.659
6772 1 30.6986 20.998 28.8212
208 1 26.7607 22.9604 28.1723
137 1 28.9398 24.1982 30.5154
4768 1 34.819 20.41 27.8757
2143 1 -0.493521 24.4611 27.833
7274 1 35.511 22.7311 29.7744
7260 1 31.9151 22.0388 30.9872
2121 1 33.3605 21.6216 29.3366
2863 1 32.9421 23.8394 29.2334
1901 1 2.3993 23.6213 24.7983
5657 1 -0.920207 28.6195 26.8526
1093 1 2.074 25.3799 28.242
7876 1 1.15758 27.4965 26.7298
4601 1 0.740122 24.4145 29.7034
7799 1 1.25497 25.1644 26.1216
6549 1 5.89275 26.7425 27.0384
7158 1 6.75427 27.6645 29.1875
1164 1 3.83284 26.6916 28.6514
4363 1 8.56851 26.5334 28.713
2831 1 3.39759 26.2782 26.4074
5795 1 5.68835 25.9571 30.6881
3347 1 7.01614 24.597 29.0445
2627 1 11.68 26.5708 27.6043
5480 1 11.6629 24.6262 29.8437
6041 1 10.3315 24.597 27.6334
3400 1 8.04138 29.0526 30.3366
3317 1 10.7616 27.0358 30.0819
3161 1 9.91985 28.4222 28.1722
849 1 9.06033 24.6193 30.2385
795 1 13.3929 24.4818 28.0897
6758 1 13.2706 26.459 29.4506
7919 1 15.0748 24.5001 29.9896
515 1 15.0662 24.7234 26.1054
3752 1 15.297 26.2853 28.2176
779 1 17.1341 25.8044 30.1146
6830 1 16.7985 24.3942 28.1082
2955 1 18.9594 25.8743 28.1346
605 1 17.4074 27.5542 28.3468
4912 1 21.1605 26.8427 26.3132
4284 1 22.9452 24.549 26.0791
6591 1 21.11 25.7013 30.2039
6931 1 21.037 24.5472 27.8299
3233 1 22.7865 26.4249 28.009
6366 1 22.3819 28.3884 29.6922
5408 1 22.6132 23.606 30.8611
3873 1 26.484 24.9127 26.7492
5401 1 24.6107 24.8134 28.1642
1393 1 24.4778 26.6095 26.2149
5638 1 26.3639 26.3673 28.4105
5560 1 25.2918 27.8197 30.5442
5236 1 28.5311 26.984 27.2552
930 1 28.2269 24.5583 28.5352
7870 1 27.6202 26.2546 30.8154
4201 1 29.6016 26.3847 29.5107
6679 1 31.3084 24.5244 30.2608
130 1 29.9679 23.3255 28.3907
1394 1 30.617 28.108 30.9115
6613 1 31.4637 25.1535 28.1803
4430 1 31.2371 27.4348 28.5627
6840 1 -0.27082 26.889 28.8728
676 1 33.7786 26.0959 28.643
308 1 32.2852 26.6383 30.5221
391 1 35.1167 24.9071 29.922
7387 1 1.51395 29.54 28.05
6436 1 1.89767 27.2298 29.7619
2321 1 1.88198 29.6852 30.291
69 1 3.77849 28.8723 28.9522
914 1 2.65793 31.9442 27.5177
847 1 0.774134 31.3456 26.2339
3120 1 3.41464 32.0442 30.2189
5108 1 4.88934 31.2465 27.5243
833 1 4.08361 29.9748 31.0708
604 1 5.89825 29.8211 29.6856
5440 1 6.44319 29.2043 27.3278
4299 1 10.9582 29.4317 30.5257
785 1 11.0609 31.0408 28.0722
3343 1 9.65564 31.6002 29.6958
3113 1 8.43949 30.284 28.2151
1719 1 13.0291 30.3596 27.1742
125 1 14.8759 26.386 31.0758
2145 1 11.6585 28.4113 26.2539
5103 1 12.1711 28.6729 28.7182
2683 1 11.8438 32.962 29.5391
3022 1 14.5129 28.6216 28.8279
5352 1 12.8382 30.7727 29.6827
2696 1 15.6735 30.5351 28.8923
1964 1 14.7831 31.5935 26.6197
6632 1 15.4485 28.521 26.9035
4533 1 17.5405 30.3468 27.0684
7324 1 19.1073 32.1656 26.6168
5124 1 15.863 32.5032 30.2134
195 1 18.0286 29.5756 29.2921
4055 1 16.8515 32.5796 27.8648
1753 1 22.2676 28.5776 27.0612
6125 1 20.1629 30.0327 26.9059
2444 1 22.2862 30.5911 26.4584
5072 1 20.849 28.2052 31.232
5000 1 20.4258 27.9072 28.6323
44 1 21.0976 30.4331 29.5302
5074 1 23.3757 31.3676 28.2994
6911 1 22.9824 32.632 30.7138
452 1 24.2228 29.5207 26.3867
3844 1 23.9991 30.3891 30.1204
1727 1 24.4574 27.9234 28.5471
7256 1 26.9541 29.0009 31.3281
3984 1 27.165 31.321 31.1853
863 1 26.5381 29.2767 28.9372
7020 1 28.4556 29.706 27.1132
3986 1 28.6952 28.779 29.5642
1119 1 30.5674 29.8398 28.4422
3793 1 28.421 31.2768 29.0622
6839 1 30.0643 30.7697 30.7331
4220 1 32.6994 28.9719 30.3132
5040 1 30.2623 31.2782 26.4
7248 1 32.2375 31.3462 29.9092
838 1 32.4826 30.0659 27.0179
7985 1 35.0826 30.6859 26.7674
5558 1 33.8952 28.5893 28.7584
761 1 -0.532297 29.1111 29.4347
7094 1 33.0384 32.5073 27.5766
4359 1 34.8665 31.3469 28.9685
5393 1 34.7324 27.2668 30.7304
5101 1 0.29937 35.7891 31.2756
3027 1 1.08111 31.9878 29.1901
7312 1 1.54511 34.0327 26.8851
4618 1 1.25987 35.0797 29.2052
683 1 3.71598 34.2406 31.8542
6385 1 3.37062 35.3394 26.1021
3713 1 5.49093 33.1503 29.2504
6991 1 3.29679 34.0332 28.6451
5891 1 4.87593 33.1527 26.2739
3490 1 6.05557 34.7424 27.4211
3638 1 5.65334 35.1761 30.0254
1062 1 6.80257 32.0159 27.0143
6152 1 7.40037 32.3644 30.3311
4394 1 8.17096 34.428 26.7654
4527 1 8.84804 33.574 28.6818
6194 1 9.37052 0.120826 30.155
1731 1 9.62681 32.4124 26.8829
6604 1 10.0947 35.3064 28.5218
7808 1 11.1398 35.6374 26.4301
356 1 11.9037 35.5574 30.2656
7556 1 11.9748 33.2667 27.2625
281 1 14.7482 34.1221 26.8516
2774 1 14.6268 -0.158538 28.0981
4207 1 13.0597 0.139576 26.1929
6599 1 14.1743 32.6372 28.7598
1635 1 14.1923 34.6011 30.3463
6048 1 12.8885 35.1681 28.1222
1877 1 19.3855 35.7925 26.5814
1823 1 18.5055 31.7394 29.1504
33 1 15.5452 36.2259 26.0405
1145 1 15.9793 34.4789 28.9757
6382 1 17.264 34.2438 26.5369
7314 1 19.5146 35.6047 29.8209
3244 1 17.5944 -0.598272 28.781
4753 1 18.8834 34.1644 28.2924
7473 1 20.7623 34.0348 26.2913
358 1 22.7513 35.3093 26.706
1253 1 21.2192 32.2739 27.5823
2456 1 20.135 32.9824 30.2957
1032 1 24.2418 33.5125 28.9381
525 1 23.232 35.7332 29.3255
7896 1 25.403 35.558 28.4989
5330 1 25.6315 31.713 29.2966
3231 1 24.4467 33.3955 26.5992
2851 1 26.8254 32.9257 27.2276
3156 1 26.8793 33.7777 29.6958
2314 1 30.5425 32.3345 28.4979
5240 1 28.0315 35.7993 28.2186
2205 1 29.1377 35.0584 29.9722
7177 1 28.9224 33.4724 27.5012
2957 1 28.5583 0.169312 31.3077
4364 1 30.4119 35.2538 27.4072
5981 1 31.1138 -0.394589 30.0772
6136 1 31.9939 33.9324 26.1765
4844 1 35.9257 32.9916 27.5427
6356 1 34.0731 32.9792 25.4396
1086 1 35.4829 35.1672 29.7015
6766 1 34.4631 34.8424 27.5518
275 1 35.7099 33.4631 30.954
5429 1 32.3656 34.9613 28.6066
2630 1 33.7921 33.1777 29.5473
5815 1 2.26199 2.00997 32.3942
2138 1 0.50437 0.674075 33.3067
2766 1 2.38812 3.76035 30.6703
160 1 22.8636 35.5522 35.3735
4775 1 19.5186 34.1593 32.2345
6227 1 4.93312 1.24897 34.8092
5917 1 6.77067 2.48537 31.7891
2847 1 4.68082 3.90861 33.2587
4778 1 7.46213 0.336057 31.5875
3154 1 4.71361 1.67297 32.3566
3166 1 7.10756 1.4834 33.8358
6036 1 9.05363 0.601748 34.3282
7723 1 10.8069 1.5142 33.0863
3823 1 11.6351 3.88677 32.3187
6910 1 11.9618 -0.290812 32.5151
1793 1 11.052 2.04316 35.6305
5983 1 14.3439 2.84278 31.2854
1386 1 11.8563 15.1545 17.9185
4044 1 15.0629 0.270463 33.8859
3089 1 12.2726 1.50281 30.6407
1642 1 13.0644 1.78074 33.3902
2749 1 15.2911 2.64923 35.0068
4274 1 13.1327 35.2956 34.4986
1969 1 16.1706 1.47799 32.1789
2375 1 16.3285 3.80054 33.3526
4708 1 17.3541 1.73588 34.1249
6993 1 18.5423 0.176817 32.6787
2537 1 19.2562 2.76799 35.0302
7016 1 18.1506 2.56392 31.8675
66 1 22.488 4.30311 31.9785
1733 1 20.765 3.00784 33.4503
6068 1 22.9649 2.07815 33.5338
5564 1 22.6823 -0.147525 33.2795
3234 1 20.6348 25.5023 34.3362
3474 1 26.5451 35.8535 32.8274
5738 1 25.0139 1.46152 32.3143
1644 1 25.1336 0.228432 34.4455
6668 1 2.55281 2.65168 17.4988
4831 1 27.4323 1.25544 34.2991
711 1 27.0126 3.40044 32.888
142 1 31.4272 3.128 31.701
2588 1 20.8921 35.3248 17.2045
4942 1 28.9154 35.9691 33.4168
1946 1 30.8988 0.422524 32.5107
1003 1 29.4298 2.19931 33.0019
7068 1 2.25513 20.574 17.737
6054 1 31.2869 2.57174 34.7895
3009 1 35.1427 0.41682 30.974
2920 1 0.150176 35.4337 34.7768
4678 1 32.9611 2.09023 33.1243
6308 1 35.2193 1.83341 33.0087
3886 1 32.7246 35.9262 33.2764
4142 1 35.0574 3.55364 34.6347
6274 1 3.29317 5.52599 34.8287
3802 1 0.169009 7.83552 31.5134
2459 1 0.354089 3.41398 34.1372
513 1 0.89938 5.58866 30.9153
3338 1 2.9376 7.56064 33.1456
6207 1 2.54757 4.6034 32.7673
4855 1 0.127212 5.21684 35.4155
7174 1 8.96612 3.07116 33.1327
194 1 5.19561 7.35266 31.1997
6157 1 4.97843 6.1377 33.1969
1892 1 2.85137 6.64488 31.2618
4756 1 7.29602 6.90047 32.6025
5321 1 7.10514 4.70217 32.6645
7980 1 9.87676 5.93992 32.3291
3468 1 24.7635 2.2126 17.3519
2919 1 8.53606 4.16876 30.7054
791 1 11.1519 4.07571 34.4387
4285 1 9.27305 8.4737 32.4791
3948 1 24.4362 24.3257 17.6101
3331 1 7.5239 7.57544 34.8745
4591 1 13.1095 4.58785 30.7235
3314 1 13.6977 6.62522 31.8076
7519 1 13.8791 4.18918 33.1529
4222 1 14.227 6.59099 34.4665
460 1 15.8553 20.9768 34.3861
1150 1 22.528 11.7393 17.0823
5508 1 16.1062 5.78008 31.9466
3181 1 17.8632 7.53643 32.2232
6425 1 1.06309 26.1929 17.576
3157 1 18.3498 4.73662 33.7245
1572 1 19.7307 7.3194 33.6053
1325 1 17.5528 6.63296 34.4748
5868 1 35.5719 2.54258 17.4229
7978 1 20.0204 4.77969 32.0293
4621 1 22.2623 3.52375 35.2813
7817 1 21.426 5.54826 34.0747
1008 1 22.0581 6.50301 32.0797
3950 1 23.8342 6.38284 33.5906
4062 1 24.6227 3.55956 33.8159
4782 1 26.2037 5.31705 34.1121
2355 1 25.3009 5.59331 31.9974
5732 1 27.1356 5.12891 30.3745
4437 1 28.6234 4.83689 34.4267
4366 1 28.0812 6.85294 32.3749
7088 1 30.6405 6.84985 31.2894
5262 1 29.1974 4.90807 32.2073
4634 1 6.54049 9.84096 35.1469
1162 1 31.1899 4.76016 33.6955
3313 1 32.2822 7.18716 33.2952
1961 1 0.921178 6.5753 33.2981
5110 1 33.2941 4.8011 32.9972
6133 1 34.5489 6.2165 34.3473
2453 1 3.12814 9.30861 31.2759
4072 1 3.27768 11.8614 32.3425
1422 1 1.64151 9.6248 33.0523
2194 1 2.55432 11.127 34.7005
1580 1 4.21546 9.36793 33.3017
3312 1 0.778711 12.0349 31.8765
5326 1 25.6549 14.0476 35.3593
4755 1 5.15752 11.0127 31.3316
6751 1 6.73096 9.45726 32.6858
1564 1 7.32266 8.35653 30.8376
755 1 7.68221 11.1426 31.2794
3228 1 24.6913 28.3201 17.3347
7662 1 9.21398 12.2434 34.8705
7337 1 8.84308 9.66803 34.4961
4378 1 9.43987 11.0589 32.7799
3818 1 10.1285 7.39139 34.4943
5510 1 13.5757 10.3909 34.3067
3870 1 11.8607 8.01534 32.1501
836 1 11.8661 8.36294 35.4541
1155 1 11.1024 9.49727 33.4646
1556 1 14.4519 9.00787 32.1357
7403 1 15.8296 8.24272 33.6016
7568 1 12.1827 11.3826 32.2461
6588 1 2.74666 35.6471 17.654
6218 1 16.1621 10.9535 34.394
7642 1 20.0145 9.65124 35.1895
5150 1 19.0459 11.2026 31.5025
4520 1 16.7238 10.6654 31.989
1721 1 18.7895 9.49403 33.0258
5488 1 18.6815 11.6666 34.7028
602 1 22.9369 11.0534 32.3318
4110 1 20.9324 9.43465 30.6534
2195 1 20.8716 11.2112 33.5906
3757 1 24.5163 9.14827 34.2518
1075 1 21.3766 9.00012 32.9762
5640 1 23.7361 8.48855 32.3603
1491 1 25.4098 7.55787 30.6981
2684 1 25.947 7.49643 33.0902
6025 1 35.2951 9.61198 17.1089
6389 1 25.6396 9.97523 32.0507
7182 1 26.5583 10.0705 34.9775
4847 1 5.29101 7.82621 34.8344
2859 1 31.1367 23.0781 35.0797
6590 1 30.1848 9.18211 31.6072
3907 1 27.6241 8.85943 31.3439
6695 1 29.9014 6.76082 33.824
6400 1 28.6381 9.26066 33.4979
3732 1 30.9882 10.4693 33.5052
3227 1 26.3509 26.4456 17.365
7093 1 -0.202105 8.52937 34.1248
7089 1 -0.11558 10.8055 34.1857
1880 1 34.7889 7.57628 32.6257
770 1 32.5279 8.53389 31.4542
5238 1 34.8798 9.99726 32.8064
3175 1 34.2554 8.43474 34.9289
4857 1 0.697388 12.9003 35.3062
2940 1 3.37468 13.1454 34.4015
1519 1 1.66537 14.0661 32.5088
1031 1 35.6714 14.4933 31.982
7633 1 2.66452 15.5898 33.6723
6776 1 3.94285 14.0769 31.9949
5171 1 5.15061 11.5725 33.6643
4541 1 6.4791 13.5908 31.5016
7069 1 7.26398 12.0795 33.6916
3655 1 5.11042 16.1489 32.8123
7323 1 5.91704 13.9854 33.9478
2670 1 7.78296 13.887 35.2376
1952 1 1.80891 1.50937 35.123
3635 1 8.60746 13.679 32.6922
2292 1 7.82186 15.6989 31.4946
2204 1 12.4706 15.0066 34.2263
6115 1 9.76766 15.6066 32.8997
7166 1 14.4585 11.2988 32.2592
1567 1 11.5272 11.7632 34.377
5470 1 14.6267 12.6444 34.4803
7979 1 10.8248 13.1013 32.0728
4677 1 13.7105 13.6565 32.1057
1813 1 19.4386 15.4099 31.7516
7335 1 18.5622 13.1002 32.9458
3969 1 16.1692 13.2984 32.7823
7008 1 20.4711 13.4206 34.3451
3874 1 17.2791 15.2507 32.9599
5104 1 17.1888 33.8379 35.6556
5986 1 16.7658 13.3394 35.4721
212 1 20.8155 13.0718 32.0892
6387 1 22.6257 12.6923 33.4409
5471 1 21.4734 15.4901 33.4277
6364 1 8.34782 22.1718 35.1875
7171 1 23.7079 14.5981 33.9012
7081 1 25.3732 12.7995 32.4242
1575 1 27.2751 11.2751 33.4316
458 1 24.6697 11.4437 34.1232
1328 1 27.6301 13.3864 31.7945
5728 1 25.9651 14.9735 33.1477
3515 1 25.5759 16.7162 30.0506
3360 1 21.6488 34.7629 30.8563
4368 1 21.1501 32.3807 32.6858
2989 1 28.8937 11.1678 31.7283
1359 1 29.6005 12.807 33.32
1336 1 29.2731 11.2737 34.8608
2126 1 31.559 13.7182 32.5416
2837 1 32.6053 11.938 32.4693
1324 1 31.4835 12.3609 34.3938
7065 1 0.555107 18.7029 17.6158
3974 1 35.0422 12.4335 33.3499
7005 1 33.4156 13.839 33.846
4369 1 2.22113 17.9939 30.4549
6055 1 0.0931003 18.6095 31.2852
6443 1 0.989603 17.465 33.7784
5576 1 0.450039 15.287 34.3257
1995 1 2.03214 19.8656 31.8753
1070 1 5.31667 20.4596 34.7664
4197 1 21.4991 34.3192 33.6857
6235 1 18.5233 28.2383 34.1271
6441 1 5.12104 18.9732 32.6393
4997 1 2.89245 17.8736 32.6115
1966 1 4.28019 17.3363 34.8781
2054 1 8.63521 18.9907 30.8701
6785 1 6.49707 18.0842 34.2885
1188 1 6.78382 17.6861 31.5494
4632 1 10.2295 17.1792 31.1945
626 1 7.42454 15.6511 33.7819
5570 1 8.58806 17.9689 32.8982
5354 1 11.6661 17.4685 33.2581
7832 1 12.689 19.3877 32.2155
2283 1 14.7928 15.469 33.6412
7179 1 13.95 17.3581 32.4449
4470 1 12.2825 15.4526 31.7726
4289 1 14.7434 18.8774 34.2786
7806 1 15.2807 15.4227 31.4452
771 1 14.6968 20.6826 32.5986
2354 1 15.1551 19.0852 31.1654
3647 1 16.9517 17.3094 31.5419
6862 1 16.6538 17.1571 34.4676
7238 1 18.9357 19.4565 31.532
4846 1 19.1069 15.2696 34.6093
3328 1 18.5975 17.7478 33.1984
5968 1 23.9511 15.4548 31.8089
375 1 20.6399 17.5513 34.7615
5014 1 22.8477 17.4082 33.4238
6476 1 20.8145 17.2276 31.8247
2934 1 23.1144 19.1705 31.9266
4037 1 22.7334 20.0146 34.4515
2761 1 21.0031 19.3237 33.1618
3516 1 25.1292 17.6505 32.2158
3721 1 24.8742 16.6945 34.4873
2401 1 27.5116 16.5037 32.3435
7404 1 27.4968 17.4521 34.5254
4118 1 26.8455 19.0512 32.7998
6794 1 24.8148 19.505 34.5544
5162 1 29.1132 18.547 32.4018
1360 1 30.035 16.3039 34.3131
5746 1 29.2946 14.9692 32.2917
3869 1 31.3884 17.3303 32.2582
4387 1 31.9244 14.8601 34.6655
5749 1 30.4437 18.8838 34.5541
6757 1 35.2542 16.4862 33.2025
929 1 32.6832 15.6044 32.6292
919 1 34.0491 15.747 35.3372
5595 1 34.449 18.0531 31.6342
906 1 35.4089 18.6191 33.8551
1235 1 32.792 17.4474 33.949
7423 1 35.4166 20.2678 30.1859
5334 1 2.9159 22.8653 31.7892
754 1 1.92263 21.4275 33.7474
1329 1 3.66117 23.0667 34.4754
6944 1 0.853219 22.0508 31.4443
2674 1 1.33359 24.3373 32.7875
6037 1 27.6215 7.7068 34.8923
665 1 8.41876 18.7257 17.5254
7498 1 7.09634 23.4857 31.2062
2527 1 3.3672 19.7038 34.0347
4202 1 4.40036 21.7221 32.7429
4772 1 6.43951 20.6314 31.2
700 1 7.59765 20.0289 33.3714
7024 1 4.59635 24.5165 32.2109
206 1 6.62946 21.9974 33.2701
1975 1 10.3417 14.2415 35.1682
3890 1 19.1839 35.5706 34.2717
4991 1 10.2527 19.6478 32.3603
4934 1 8.67538 21.5187 31.5864
6071 1 9.86224 21.6359 33.4568
1159 1 11.531 21.3387 30.9441
5020 1 11.6396 19.3519 34.7972
2106 1 13.1718 23.8613 31.5557
2199 1 14.4435 22.8954 33.2832
7252 1 15.7445 24.4353 32.3904
3170 1 12.2195 22.1736 33.2401
7576 1 16.9105 20.7305 30.9149
7159 1 17.0011 19.4218 32.9662
953 1 19.4503 21.5794 31.9224
155 1 19.2438 20.6804 34.2817
3575 1 17.5024 22.2288 32.9417
6062 1 0.0480627 31.666 35.5294
7262 1 19.1674 23.1291 34.452
758 1 21.4292 21.8447 30.9627
1495 1 24.1675 22.4654 34.6652
6200 1 21.4417 21.7351 33.6652
7239 1 23.2274 21.6728 32.3282
1166 1 28.6077 21.3091 33.6471
4215 1 25.2322 20.5695 32.0563
2305 1 26.3138 21.3627 34.3165
6510 1 28.8043 23.3878 34.1877
297 1 25.1636 23.4031 32.8321
6782 1 28.246 19.594 35.683
5945 1 33.7131 4.21759 17.2133
1991 1 33.4507 23.6144 31.4974
6188 1 35.4568 17.0458 17.8508
3827 1 32.6169 22.1307 33.6981
6219 1 30.3901 22.9689 32.6399
1169 1 30.9935 20.5869 33.2295
2835 1 33.2876 20.2186 31.6672
4761 1 33.2484 19.6317 33.9405
5164 1 35.1577 21.7074 32.0027
2371 1 0.0363457 20.1326 32.9279
3558 1 -0.170559 22.7628 33.8783
7398 1 34.3686 24.0124 33.7683
3559 1 22.6161 10.4743 34.9192
3729 1 0.336923 26.3321 31.4941
7244 1 2.55192 25.3381 30.9469
6585 1 1.01186 33.6242 17.5221
1090 1 2.6689 26.5631 33.0872
1506 1 3.59391 27.5775 31.1135
1081 1 7.48984 26.8445 34.8337
1315 1 8.69646 5.48338 34.5642
3005 1 6.10837 26.7276 32.9606
5990 1 6.14038 24.3947 34.3789
1475 1 9.74267 24.1524 34.707
223 1 9.95837 23.6633 32.0504
1306 1 7.97489 24.9178 32.9595
2382 1 21.6429 31.7981 34.9151
2134 1 8.07123 26.4517 31.1284
5273 1 9.90024 26.3229 33.5175
392 1 11.8481 24.4333 34.1095
282 1 12.9081 27.8137 31.0175
3072 1 11.7035 25.6334 31.9964
2391 1 15.5499 23.949 34.9003
1571 1 11.8377 27.6771 33.1429
3164 1 13.9915 25.6656 33.5111
6779 1 14.3805 28.1599 32.9562
6141 1 18.37 24.5803 32.0622
3428 1 16.05 26.6709 34.5239
7315 1 17.6146 24.7931 34.2729
1471 1 18.8246 27.0917 30.1455
5095 1 17.1797 26.6956 32.3942
3243 1 22.7513 26.1622 31.9318
1957 1 24.0538 25.7143 30.2138
3629 1 20.6567 24.0801 32.3958
5501 1 19.8587 26.5772 32.3077
7746 1 22.8035 24.2735 33.5235
3960 1 23.5653 26.3327 34.0014
5157 1 12.7246 17.3642 35.3319
4278 1 27.3783 24.6065 32.6818
6753 1 26.4988 23.6386 35.0515
2237 1 28.2247 25.5101 34.8084
6195 1 25.8472 25.7564 34.4926
1631 1 25.5447 25.4987 31.9872
3265 1 30.525 25.3142 34.9646
1331 1 29.8606 25.9804 32.2823
2953 1 29.4836 28.8613 32.64
1554 1 32.0761 24.9075 32.6785
4357 1 17.329 8.98675 35.5995
400 1 35.8923 23.9126 31.7148
3185 1 -0.321548 25.0878 34.6911
1033 1 0.613205 27.4076 33.9785
4375 1 35.034 27.5373 34.4646
1016 1 33.8394 26.5818 32.8507
535 1 31.6351 27.3621 32.8736
3116 1 2.12203 32.6622 34.1421
1655 1 0.0127005 29.6114 33.8697
6698 1 2.57864 29.859 34.5688
6116 1 1.92326 28.8805 32.5698
4153 1 -0.541701 28.6356 31.7169
2356 1 1.35345 31.2904 32.5286
1820 1 4.20673 28.5751 33.3503
7567 1 5.62933 31.1459 34.147
7956 1 5.78534 28.6535 31.8262
4135 1 5.89693 28.6675 34.6633
7072 1 6.07462 31.2272 31.8436
1797 1 7.71348 30.4156 34.2454
5093 1 9.59136 32.1515 34.301
2996 1 7.86955 28.3589 32.7502
3706 1 10.7712 31.9051 31.8098
1250 1 10.5539 29.7615 33.9482
1479 1 8.96205 30.7497 32.0897
1429 1 10.1059 28.1394 31.9734
5155 1 12.3391 29.9366 32.2849
4833 1 12.2759 31.9335 34.1213
2439 1 13.2083 31.869 31.6291
4698 1 15.2785 28.8501 35.1662
1598 1 14.4325 30.5203 33.4331
1180 1 12.968 29.0371 34.8353
5256 1 14.9193 29.9247 31.046
614 1 16.2788 31.1602 34.9754
7584 1 18.4279 28.6812 31.6771
3248 1 16.313 28.0885 30.5553
7593 1 16.9687 30.5501 31.0362
999 1 19.3964 30.7773 31.0354
3644 1 18.2398 30.6373 33.5201
6871 1 16.5214 29.17 33.299
3799 1 33.6648 1.30619 35.505
2830 1 20.2258 27.4007 35.5821
6214 1 22.2893 30.4585 31.8826
5341 1 21.1575 0.221064 34.9571
2606 1 21.5868 27.904 33.4751
3570 1 23.1955 30.0435 34.0369
6065 1 20.4649 29.8331 33.2198
7436 1 25.8074 30.9068 34.635
1019 1 23.5201 28.4472 32.153
633 1 26.7356 33.0087 33.5978
4298 1 25.4994 27.8 33.2757
5729 1 25.1747 30.3983 32.3225
5465 1 31.656 16.959 17.2859
202 1 29.3081 32.9747 30.6722
4694 1 31.1346 32.1958 32.2008
7954 1 28.7055 31.6454 33.265
7183 1 30.5882 30.0427 34.4106
4911 1 27.4203 29.6886 33.4629
4438 1 31.8859 29.8434 32.2984
5082 1 27.8542 27.1917 33.0128
1814 1 32.9674 28.6181 34.5484
2350 1 36.3884 30.8485 31.005
5989 1 32.7233 31.6579 33.7106
2133 1 33.7792 31.0615 31.2691
1423 1 35.0938 31.749 33.2448
7803 1 33.9882 28.9779 32.4315
668 1 9.81173 20.7344 17.3155
1822 1 3.17665 -0.0999629 32.5689
1809 1 1.5142 33.2589 31.5098
6456 1 2.01638 34.8189 33.4521
4525 1 0.0220557 33.0662 33.2934
1790 1 3.53105 31.5127 32.5672
5811 1 5.46616 -0.457493 32.0271
3311 1 7.27486 32.9259 34.7028
2907 1 4.45089 33.3981 33.9886
4435 1 6.26403 33.6379 32.3512
7750 1 5.24223 35.4905 34.408
6930 1 7.81202 34.773 30.7613
3680 1 7.3882 35.8166 33.4369
7716 1 25.3611 6.9642 35.2457
5268 1 9.82413 35.8912 32.3277
6457 1 8.65446 33.3984 32.5451
1560 1 10.878 34.3719 34.1096
5241 1 10.1418 34.1385 30.767
5788 1 35.6904 35.3272 17.2189
1742 1 12.5725 33.6697 32.5742
5637 1 14.4139 33.263 34.3044
6348 1 35.443 24.0015 17.2633
5798 1 5.01397 15.2468 35.4548
1469 1 14.973 34.6327 32.6286
186 1 7.54216 33.7658 17.6623
6921 1 16.4936 35.9297 31.1511
5646 1 17.8157 33.882 30.3938
1074 1 17.9321 32.4286 32.0883
3346 1 15.7118 32.3378 32.7782
3169 1 1.71534 9.13183 35.476
372 1 17.1472 34.5911 32.9082
1708 1 17.0526 32.2703 17.8253
3036 1 2.34046 25.8259 35.3173
3564 1 31.7734 6.82547 35.4687
6612 1 8.88951 34.4611 35.5556
4931 1 26.9437 3.28071 35.4767
5280 1 33.6383 10.8105 34.6614
7327 1 17.5524 19.2983 35.3058
5785 1 33.6466 34.0402 17.5665
874 1 30.6093 0.307819 35.1965
6345 1 33.5475 22.7058 17.3583
4936 1 27.1174 27.6437 35.092
7006 1 29.8538 27.7837 34.6874
4988 1 31.701 35.3746 17.7551
4743 1 28.0256 20.8904 17.3473
7575 1 29.2923 32.1995 35.8097
5708 1 36.0249 31.6494 17.7358
2530 1 29.6269 13.9165 35.9212
7953 1 6.64043 3.45045 35.05
4836 1 34.9685 30.099 35.4294
4273 1 3.31503 2.99913 34.8887
1747 1 2.85962 -0.494091 34.9773
6137 1 10.6651 -0.702651 35.5503
1675 1 32.9502 4.56347 35.258
1431 1 12.7253 26.8197 35.1722
6714 1 17.0094 36.171 35.1485
5177 1 21.4611 23.3288 35.2185
1404 1 1.44539 23.3593 35.4818
1555 1 35.0856 33.6602 35.2599
5021 1 30.1115 8.73793 35.295
111 1 13.186 4.30777 35.6428
508 1 11.8285 11.1003 17.2574
4668 1 30.1095 19.488 17.6534
2112 1 16.9728 9.77243 17.4651
5225 1 30.1775 7.58941 17.5908
6745 1 0.694448 4.29128 17.6696
2181 1 17.0831 13.5029 17.7967
7708 1 6.33695 13.2453 17.3259
608 1 3.08989 35.8866 38.3923
1260 1 0.855847 1.59901 37.7484
6677 1 2.72654 2.90566 38.1621
3841 1 35.8043 35.5204 37.0495
3668 1 1.35087 -0.666348 36.6855
1097 1 0.727933 -0.598694 38.8012
7551 1 3.18186 1.33813 36.7798
7720 1 6.04735 1.43606 37.1926
7346 1 6.88897 3.23978 38.2859
6466 1 6.28947 0.0843497 39.868
2770 1 4.49628 1.36675 39.2552
635 1 32.5672 32.1921 53.1735
3020 1 9.35165 -0.486507 39.521
4143 1 10.6868 1.86907 40.272
3897 1 8.19436 2.51628 36.3544
2628 1 8.57972 -0.647867 37.3573
7718 1 8.71803 1.73816 38.9978
2080 1 11.6443 3.1676 37.6454
940 1 10.2814 0.807639 37.3337
5386 1 13.153 2.71923 39.704
2379 1 15.0255 2.54453 37.3653
4788 1 14.9881 0.907739 39.2513
7428 1 15.1198 0.441482 36.6969
6762 1 12.6581 1.30641 38.1011
6130 1 16.9361 0.0424103 38.1064
834 1 17.2538 2.19161 38.7398
6631 1 18.8176 3.38425 37.2534
4370 1 19.3872 0.581324 38.6203
7875 1 19.134 2.29251 40.3917
7186 1 28.7474 10.1159 36.52
1633 1 20.5584 3.13955 38.7042
1395 1 22.8828 0.829961 36.437
4672 1 23.3047 2.97198 38.3086
691 1 24.3965 0.611067 38.5882
4283 1 21.2276 36.0086 36.999
4196 1 20.3634 4.79465 40.5773
3968 1 26.378 1.89387 39.4106
5720 1 25.9182 -0.00680688 36.7261
760 1 25.9697 3.50407 37.6688
120 1 27.2584 1.6233 37.0578
6694 1 3.615 21.4959 36.0914
7071 1 24.8718 3.54076 40.2245
6918 1 25.588 2.01163 42.1782
2316 1 30.0152 1.13776 41.1279
524 1 28.5536 2.9821 38.9444
209 1 29.767 35.9595 38.0429
5557 1 31.5562 1.40331 37.2717
2669 1 28.0485 0.358832 39.1203
5151 1 36.148 1.5011 39.5864
6771 1 33.5314 3.00899 37.0619
6787 1 34.4245 1.16217 38.1167
126 1 32.348 1.33788 39.9251
5247 1 35.2817 35.6863 39.4594
4157 1 0.768019 3.49143 38.8947
1829 1 20.3061 21.7715 36.3162
597 1 2.84606 5.23053 38.2495
1403 1 0.292484 5.73145 37.9539
2244 1 11.6016 8.555 37.6486
3797 1 24.7946 4.69431 36.2421
4557 1 2.75079 8.82109 40.2351
7949 1 4.68074 3.64724 36.7909
7411 1 23.022 13.2913 35.9338
7084 1 4.02873 6.58769 39.929
7004 1 0.0652648 27.5324 36.0512
4924 1 5.39482 5.62707 38.1612
5571 1 34.0454 18.3095 35.918
3798 1 1.83944 6.89269 36.2931
7804 1 11.1636 4.40254 39.9352
3882 1 7.49317 4.70589 36.5194
3748 1 7.73961 6.17209 38.6973
443 1 8.99494 6.91307 36.8144
3661 1 9.27935 3.87478 38.6344
5248 1 11.0349 5.61709 37.7395
7959 1 13.4435 4.68675 37.8452
3824 1 13.3742 6.81212 36.8704
6675 1 10.2214 7.39519 38.79
146 1 12.7989 7.3292 39.4495
7550 1 15.0751 3.84571 39.7064
364 1 14.9116 6.56003 38.8375
6399 1 17.9918 4.51958 39.889
4949 1 16.4974 4.55504 37.8763
3826 1 19.1372 8.11595 37.3068
5484 1 16.7985 7.78511 39.0156
7824 1 17.117 1.63976 36.3376
610 1 18.2737 5.78191 37.0256
861 1 16.1394 7.2508 36.8934
1156 1 20.6041 7.15586 35.5714
4539 1 20.7008 5.67145 37.9164
7639 1 21.9913 7.57396 37.3788
4556 1 22.9254 5.90008 35.9735
7250 1 23.1542 5.33176 38.3829
2925 1 18.8757 6.77707 39.1439
3640 1 26.4333 5.34661 38.8557
2697 1 24.5122 6.3735 40.2291
3424 1 24.9891 6.74732 37.4525
4453 1 28.4406 4.11008 36.9691
5966 1 27.1899 6.19216 36.5229
7835 1 34.894 33.04 52.4047
6609 1 30.667 2.71779 39.2535
7001 1 27.388 4.11054 40.7713
228 1 28.7346 5.46887 38.9242
3676 1 29.6644 6.62252 41.678
7257 1 7.3441 15.7479 36.0243
3479 1 30.7308 3.94074 37.0192
276 1 35.7804 3.09569 37.3311
5270 1 34.7657 4.92142 36.7035
3901 1 32.6631 4.9033 38.3553
5786 1 34.0818 3.32661 39.2814
203 1 29.2757 23.6058 36.4387
4859 1 35.0321 5.27011 39.0592
4449 1 0.955848 11.1258 36.5243
3155 1 1.90192 9.09617 37.654
5499 1 36.0162 10.5445 38.3375
3637 1 1.50654 11.4152 39.1222
2032 1 35.1213 12.4904 35.7236
7656 1 4.54072 23.9056 36.7005
4757 1 3.87668 7.45159 37.4522
4792 1 6.2857 7.95111 36.9822
1177 1 6.23445 10.8503 37.4963
6836 1 5.17397 12.4715 38.637
2446 1 31.331 17.0563 36.0255
2618 1 6.46395 11.8172 41.0262
6118 1 27.5336 21.9119 36.3872
3671 1 6.09787 7.99492 39.4403
3309 1 7.0806 10.4507 39.5606
4302 1 11.1633 8.30281 40.7813
3667 1 6.76909 30.0834 36.5217
64 1 8.50872 11.7715 37.2871
198 1 8.36473 9.25619 37.2601
5112 1 11.9912 10.3796 39.9565
750 1 13.6482 9.02909 41.1483
2994 1 10.4936 10.4851 38.4982
2781 1 13.8091 9.66944 38.5028
1280 1 10.1365 10.1147 36.04
6276 1 12.5016 10.1847 36.2703
3083 1 16.3392 9.7382 37.9605
1641 1 16.6553 11.7611 36.9435
1810 1 18.4127 9.53073 39.2109
3503 1 18.8374 10.6345 37.0556
2441 1 20.4863 11.7398 38.5792
949 1 24.133 24.598 35.8429
6708 1 1.1523 3.52692 36.4355
2475 1 23.8426 8.68788 36.927
850 1 22.8909 12.0557 38.2842
7793 1 24.5598 10.6189 36.3513
589 1 21.6827 9.85472 36.8851
7563 1 23.003 21.601 36.359
7191 1 26.4366 8.65463 36.977
1723 1 23.3204 8.30886 39.4692
4674 1 27.1326 7.69629 38.87
132 1 24.2869 10.1639 38.7935
4198 1 28.0904 10.4082 38.7645
6791 1 31.2891 11.1264 36.2108
5871 1 28.2559 8.60392 40.8539
6846 1 31.3042 6.68723 37.819
5660 1 15.2357 4.92382 36.1645
7233 1 29.0476 7.95314 37.4795
4373 1 30.9044 9.66997 38.2877
3718 1 29.8278 10.4581 40.6945
4713 1 32.2034 9.14673 36.5007
937 1 9.74351 4.23615 36.342
6702 1 35.424 7.51182 38.614
7086 1 33.1981 7.2755 39.6949
2616 1 35.834 9.61373 36.3161
5726 1 33.7973 6.85683 37.2988
7075 1 34.6126 11.3483 39.718
3645 1 33.6654 9.16081 38.1543
5414 1 3.19854 12.2749 36.9539
5632 1 0.017627 12.2604 40.7115
4995 1 1.03746 13.2083 37.8723
7419 1 3.82547 10.9145 39.9323
1835 1 -0.0473987 14.6577 39.5219
6596 1 2.50646 13.472 40.4192
7185 1 5.6533 5.54052 35.6436
4050 1 6.70105 13.9801 37.2101
6196 1 7.30357 12.7417 39.1089
860 1 5.75879 13.9872 40.8352
7798 1 9.61473 19.9043 35.4407
536 1 8.2119 14.96 39.3975
5329 1 4.4506 14.3822 37.4637
4385 1 9.19176 12.087 40.0326
4476 1 11.0941 12.1352 36.6797
4777 1 11.3877 15.6695 36.8168
6620 1 9.32935 14.5883 37.4883
7417 1 10.1758 13.8725 41.1036
5907 1 10.6176 13.238 38.8941
6123 1 13.0641 12.2927 38.7682
2380 1 12.8005 13.5629 36.209
6001 1 13.1707 14.8656 38.162
2070 1 14.6455 10.9382 36.5871
1629 1 14.3512 15.2574 36.1844
4309 1 15.582 11.8267 39.1451
4030 1 14.846 13.3251 37.4588
6952 1 19.002 13.1519 36.7679
7651 1 17.2999 14.2333 38.0288
6537 1 19.423 14.2607 39.3031
2047 1 19.512 15.7206 37.5304
4545 1 15.4237 14.1196 39.5936
7903 1 20.0678 10.9582 40.6898
3725 1 28.0954 29.7739 35.4826
4287 1 21.3199 17.1749 36.9231
921 1 24.6708 16.6938 37.2987
2711 1 22.9348 14.6335 38.6144
7797 1 24.8744 13.229 37.4896
1428 1 21.0366 13.7908 37.5138
617 1 23.6107 15.8142 40.171
5087 1 19.3428 0.614179 36.3644
2369 1 26.7246 11.4244 37.4468
4921 1 11.4606 30.8116 36.2992
4442 1 26.3808 13.4098 39.5684
1737 1 27.3882 14.0673 37.468
2518 1 29.1527 12.0977 37.7339
5167 1 29.1321 14.7133 38.9401
3997 1 28.5184 12.499 40.0323
2862 1 30.5407 13.5685 40.4386
304 1 32.1974 12.0265 38.9804
7339 1 -0.250859 15.0233 37.038
7732 1 35.5675 12.859 37.9945
5579 1 32.1645 9.70369 40.1658
1419 1 33.3973 11.6515 37.2169
151 1 31.044 13.8706 37.5431
2052 1 32.1178 14.8706 39.7675
3320 1 36.3453 17.1098 35.9089
6358 1 4.04723 15.6344 40.2299
5972 1 1.7332 15.624 38.2903
7098 1 1.73518 19.225 35.8483
6202 1 -0.337526 16.9879 39.22
1078 1 3.89261 16.5938 38.0192
312 1 1.9803 18.2068 38.1558
6595 1 -0.501295 18.9401 37.8734
1350 1 6.74716 16.5998 37.8233
1080 1 5.77279 18.1681 36.4087
2202 1 5.09426 18.2675 38.9753
2215 1 33.1132 13.6309 36.1459
4243 1 32.8587 34.6454 53.8871
127 1 6.75965 19.7505 38.8448
3813 1 8.04726 18.0883 35.9786
4315 1 11.175 15.9398 39.1603
712 1 11.1812 17.9722 37.0137
1634 1 9.0075 16.727 38.2654
4766 1 9.02707 18.9609 38.1096
846 1 13.3412 19.5647 36.7434
3171 1 29.6559 5.99401 36.4439
3491 1 -0.142168 32.9813 53.8847
5257 1 13.4456 16.564 39.676
2452 1 15.0068 18.575 39.2536
4864 1 13.4691 17.159 37.4343
231 1 15.9986 16.0762 37.9564
2679 1 16.783 18.5212 41.2283
7975 1 18.7924 17.7463 36.6934
537 1 17.4805 15.7977 36.3589
7674 1 21.7227 2.46486 52.9225
462 1 17.2616 18.0726 38.7698
3972 1 19.2976 20.1297 40.3543
215 1 19.1674 17.7712 40.8183
5949 1 17.8954 15.9805 39.6254
2386 1 17.0981 14.278 41.2517
6626 1 21.0492 16.2318 39.3072
7416 1 23.0412 17.4909 38.7958
467 1 35.6609 16.271 53.6624
1954 1 22.1807 19.5155 37.0597
6616 1 20.2314 18.4604 38.6616
2535 1 1.32954 21.4806 37.1224
1415 1 26.661 15.9188 36.2394
2135 1 26.3862 18.7261 36.6959
6278 1 27.7281 16.539 38.5772
4158 1 24.6338 19.2443 38.9374
1830 1 25.5903 15.2866 38.7721
7155 1 4.54097 6.82718 53.4027
6129 1 30.4391 16.6557 38.3214
6042 1 30.0882 16.4224 40.6738
4676 1 29.2697 19.1265 39.7726
5492 1 6.09021 22.3633 35.7486
3013 1 32.2837 17.7712 39.7874
5893 1 32.2695 18.5396 37.5412
5790 1 29.8451 19.1296 37.3952
612 1 34.5385 15.0345 38.3885
2117 1 34.2758 17.749 38.1087
3801 1 25.2786 27.8369 52.5052
4542 1 32.8892 16.2202 37.3199
7833 1 2.0432 20.3525 39.1802
678 1 2.01611 23.8039 37.8799
6304 1 36.1859 21.3326 38.8831
5874 1 1.36523 22.9176 40.2377
5883 1 2.32888 14.3806 36.3205
5514 1 3.49281 22.3306 38.5472
3790 1 3.94276 19.5912 37.4874
3001 1 5.1872 21.2501 38.2424
6703 1 6.74166 21.2959 40.9173
6546 1 11.0725 21.9721 35.2219
1406 1 4.91831 22.8408 40.4914
5004 1 8.48747 21.2702 37.9741
157 1 9.80857 23.4757 36.8529
6685 1 10.7834 20.8206 39.5556
5741 1 7.23905 20.2046 36.0471
7157 1 11.2223 20.437 37.164
6282 1 16.0222 19.685 36.9356
4216 1 12.7195 23.2159 36.237
469 1 14.1352 21.0072 38.8425
7640 1 14.9643 21.9861 36.3875
6052 1 14.6611 23.3749 38.6433
4551 1 13.0306 1.26568 35.5173
2523 1 17.7109 21.9871 35.8907
7989 1 18.385 19.9132 37.586
2531 1 16.558 21.8605 37.9702
7810 1 19.9796 21.8637 42.3152
5974 1 18.8021 22.1735 38.1004
290 1 20.7122 20.8593 38.4817
6835 1 25.2166 23.0075 37.0111
6797 1 22.0899 23.5321 37.6627
4213 1 12.6252 35.658 36.5083
5165 1 23.1615 21.4245 38.6387
1252 1 32.8848 35.5191 49.2798
2534 1 24.4414 23.5245 39.9972
2867 1 25.3295 20.7556 36.4404
6608 1 26.508 24.913 38.9382
4362 1 27.9514 20.7112 38.1597
7009 1 27.779 23.2607 38.2785
5097 1 27.9934 25.656 41.1863
3896 1 25.7305 21.7633 38.9921
3501 1 23.2159 34.397 51.2503
4843 1 29.5326 22.0206 38.7805
1018 1 30.0111 24.3994 38.5405
3348 1 31.6373 22.4103 39.6853
4221 1 23.3351 17.99 35.6504
5828 1 31.5139 22.2343 37.382
4544 1 1.51474 22.7739 53.2988
2219 1 35.5771 22.8381 36.5756
7435 1 18.188 16.7143 53.4977
2840 1 31.4995 20.1697 39.2146
4670 1 34.1573 20.8283 37.0626
5789 1 34.0269 21.0011 39.5997
2609 1 33.8057 23.1915 38.1534
5967 1 0.82433 27.7653 38.0415
2595 1 2.78551 26.0409 37.8719
3198 1 0.22645 25.3759 37.0848
956 1 32.0843 35.2897 35.927
7410 1 1.21187 25.6468 39.6763
1172 1 31.7026 32.7153 35.3821
3807 1 6.86757 27.8062 36.7485
6960 1 5.32722 24.4584 38.6389
3417 1 28.514 -0.0920399 35.7459
428 1 6.67266 26.2978 38.2262
480 1 5.86491 25.5196 40.5873
7104 1 3.23853 24.4209 40.0412
2224 1 3.99203 27.0019 39.8478
1798 1 9.05764 25.9934 36.1988
1076 1 7.01468 22.7533 38.8466
7839 1 11.4718 25.1955 36.7858
925 1 12.5899 27.3183 38.1066
4459 1 8.15613 24.7201 38.4933
7105 1 11.2558 25.2873 38.9612
5882 1 12.1766 22.5992 38.3947
4320 1 7.12331 24.4843 36.4593
7184 1 13.6862 25.4032 38.4285
7560 1 14.052 25.0993 35.8608
4058 1 14.8779 26.8997 36.8285
7549 1 19.4631 23.9628 36.5839
3642 1 16.6172 24.4234 36.9913
5028 1 16.8331 24.074 39.2335
5813 1 16.1105 26.1318 38.7064
1244 1 18.5129 25.7499 37.9779
4517 1 20.3921 26.6402 39.1409
7677 1 17.4327 28.0873 37.5615
6533 1 19.5747 14.5777 51.9291
4922 1 27.1615 32.8671 35.9855
40 1 4.48614 26.5648 35.4685
5639 1 19.4659 23.9545 39.0465
2613 1 21.2504 25.7288 37.0088
7036 1 23.966 26.2844 40.0662
994 1 24.7334 26.7274 36.3949
933 1 14.68 8.7558 35.7192
3983 1 22.3085 24.6161 39.7791
4226 1 27.0441 25.2286 36.648
5029 1 28.2094 26.4756 39.0093
5656 1 23.8554 25.0913 38.0539
1760 1 9.18004 11.2676 52.7779
7163 1 25.9404 27.5065 39.1273
447 1 29.3342 26.7873 36.7759
2775 1 25.5306 24.9679 42.0077
3738 1 26.7547 27.7588 41.3876
5721 1 31.5846 27.2695 36.2211
4224 1 32.1995 24.6467 39.5507
4699 1 30.4852 27.3216 38.4974
3634 1 31.7374 24.8954 37.0683
7402 1 33.058 26.8147 38.327
2843 1 30.4478 25.9884 40.3498
992 1 33.4453 22.7075 35.8268
5601 1 35.6505 26.8082 38.5261
7722 1 34.5843 25.1367 37.155
1249 1 35.9151 23.8011 38.7111
5996 1 34.3173 25.9003 40.0221
4751 1 34.5669 28.4188 40.0124
3712 1 32.1647 20.56 35.9154
1796 1 0.910443 29.8994 36.425
3356 1 2.67977 31.8262 36.238
6229 1 2.12728 30.4102 40.7764
6309 1 24.621 36.2506 52.1386
6614 1 4.89346 28.1589 37.8733
7025 1 2.62713 29.8569 38.5188
2526 1 4.98462 32.5518 36.2761
4769 1 5.63657 30.3108 38.3352
7814 1 4.0031 9.31148 53.7249
772 1 4.4958 29.8599 36.2659
7400 1 3.62389 31.939 38.4647
6393 1 30.9317 31.8064 51.7084
2398 1 9.7565 26.9132 38.5175
3980 1 8.18992 28.8101 38.7198
7661 1 10.7962 27.9983 35.8285
7322 1 11.1715 29.3191 37.8837
2693 1 23.4889 32.5502 53.0358
6148 1 7.78434 32.5689 36.7646
363 1 9.72485 29.2515 40.3253
7670 1 13.3872 28.8551 36.8926
3081 1 12.2722 29.2212 40.016
1176 1 15.8942 30.0685 37.0841
6684 1 14.8633 28.3312 38.5676
1424 1 13.4982 30.4933 38.3793
2764 1 18.3484 29.865 36.2043
2923 1 16.6559 29.5999 39.6137
2384 1 18.9546 30.1409 38.5007
3717 1 20.7551 29.744 35.572
7822 1 22.7222 27.1791 38.3736
1480 1 19.9294 28.0801 37.4879
5011 1 22.5013 27.616 35.9836
2514 1 21.9555 29.3785 38.0593
5647 1 24.2005 29.1107 38.2061
1484 1 27.0949 29.904 40.2443
7092 1 27.3982 28.2633 37.5065
3389 1 23.4701 30.1656 36.373
2029 1 25.6571 31.3863 39.6591
4388 1 6.96379 27.9521 53.2416
1664 1 30.299 32.937 53.651
4606 1 0.890972 33.6827 36.0721
5276 1 29.0361 28.9932 39.3282
6128 1 32.0786 29.3187 38.5418
1006 1 30.8593 31.2184 37.5493
7511 1 28.0094 30.8863 37.6711
6759 1 29.1602 31.6463 39.7748
4511 1 35.5949 29.3643 37.9738
7834 1 32.3522 30.1368 35.9892
4840 1 34.1817 30.6573 39.3286
554 1 33.1695 32.2034 37.0518
3803 1 34.3951 27.7764 36.4888
5483 1 35.5905 31.8126 37.3809
1597 1 2.21759 33.9923 38.0907
3554 1 1.21495 34.3879 40.8076
2159 1 0.864698 31.8094 38.2702
42 1 -0.066201 33.808 38.7276
2600 1 20.5463 34.3954 50.5842
5559 1 29.7525 21.2288 36.2778
5717 1 4.98973 -0.518225 36.7326
911 1 6.51869 34.6329 36.2644
6293 1 4.67502 34.2845 38.2962
1658 1 6.32981 32.4717 38.7407
3420 1 3.34255 33.45 40.1576
789 1 10.1113 32.6582 36.3612
2372 1 6.77629 35.1095 38.4185
1485 1 9.25079 33.2926 38.8546
6607 1 8.57499 31.0499 38.8984
7487 1 12.946 33.2884 38.2134
361 1 10.7966 34.9022 37.4874
3912 1 15.2144 32.8007 36.6268
2209 1 13.7777 34.245 40.2125
2753 1 11.3434 6.03695 35.5424
7754 1 12.0825 36.3308 39.7224
7968 1 14.6307 35.1534 38.4808
6230 1 19.7592 31.8297 36.7719
4384 1 17.3974 31.935 37.0512
3573 1 15.1256 32.3084 38.8417
128 1 18.4029 32.3329 39.1953
4138 1 16.7449 34.2956 38.022
6284 1 19.2764 34.6286 36.6285
7976 1 18.6053 35.1874 40.1131
5791 1 21.085 2.29591 36.7316
3964 1 22.7495 31.6538 37.725
5723 1 22.0874 33.5096 36.2171
7165 1 21.7413 1.14714 38.8058
4680 1 22.5969 33.3146 39.8455
7893 1 23.6295 35.2637 37.8459
4945 1 20.3514 33.802 38.4071
2128 1 23.8818 32.49 35.4395
5412 1 27.3228 35.2493 37.3309
3497 1 25.4402 35.0047 39.2954
7664 1 24.6396 32.9152 37.915
3628 1 25.6689 30.5467 37.3612
2306 1 27.3473 33.1678 40.0575
4595 1 25.0398 34.3447 36.004
4124 1 29.552 34.6617 35.9235
6790 1 28.7066 35.1447 40.1374
5116 1 28.8726 33.115 37.8674
2556 1 27.7785 33.2114 52.7461
6605 1 32.4001 34.1453 51.4142
875 1 33.9542 34.4211 37.3263
5597 1 34.5974 1.26601 52.8658
1246 1 32.3128 36.0623 38.5017
6223 1 31.311 33.5861 37.6696
2033 1 34.3971 33.1791 38.9323
7336 1 31.9749 31.515 39.678
3032 1 2.73727 2.42993 40.3844
6394 1 2.36476 -0.250314 44.5246
7354 1 2.20767 0.584507 42.4767
1983 1 -0.0529228 1.88715 42.4188
4275 1 3.8725 2.75312 42.5213
3517 1 0.17764 -0.115582 41.2578
3405 1 2.44462 2.43948 44.6968
1577 1 2.51432 -0.0753874 40.3236
1197 1 6.08239 1.73808 41.8933
3340 1 7.00441 35.9918 42.6373
2842 1 4.35735 -0.0545116 41.8641
4038 1 6.67617 0.752934 44.6017
7792 1 8.077 2.85282 42.9977
5662 1 8.48624 1.25079 41.4184
4681 1 10.3683 1.86381 42.9639
7802 1 9.6349 3.6739 41.538
7482 1 10.4056 3.73444 44.4903
2603 1 9.02966 0.418447 43.9502
1400 1 8.42239 4.66865 44.6116
6535 1 10.117 -0.185753 41.6295
5324 1 14.8867 36.1787 41.212
5809 1 12.1114 3.31301 41.9374
6715 1 12.9077 0.196205 43.8574
7253 1 12.6249 0.825949 41.5581
5263 1 13.0459 2.9143 44.0619
1170 1 15.265 1.56902 42.1585
5419 1 16.8422 0.861331 40.7251
3568 1 17.4702 35.4009 42.045
397 1 16.0614 2.68101 44.4086
2435 1 16.9523 3.06389 41.2283
5840 1 19.5043 0.282258 41.2306
3966 1 18.6773 1.99183 42.9227
6303 1 22.89 2.015 40.2731
4033 1 20.7029 1.90587 44.0188
6458 1 21.1288 2.69009 41.6674
199 1 23.5666 0.970577 43.6789
3481 1 23.3973 3.16077 42.6551
5195 1 24.319 0.557514 41.0332
371 1 26.3662 0.496849 43.9228
386 1 26.4986 3.43414 44.1722
7561 1 27.7038 1.76686 41.3527
5069 1 27.4406 1.81431 45.8124
6448 1 25.1162 1.98276 44.6902
2868 1 29.4477 3.50511 41.3289
2053 1 31.3109 35.0013 42.7323
4461 1 30.2345 0.693028 43.9907
4311 1 32.7479 -0.445455 44.056
5649 1 31.8387 0.611888 42.1064
3898 1 32.0202 2.12233 45.3003
2546 1 35.0452 3.6843 43.1609
30 1 34.7419 2.0405 41.3089
2792 1 33.1535 2.03157 43.364
5745 1 33.744 -0.351315 41.4204
854 1 35.4568 0.0789421 42.8811
3736 1 1.23452 3.71462 42.3053
636 1 2.13648 5.50765 44.0423
7641 1 -0.152069 5.3197 42.8225
4538 1 1.55105 7.04215 39.066
4559 1 1.69817 6.41396 41.2771
1826 1 2.62934 4.67168 40.3222
2317 1 6.02668 4.09496 42.3834
4605 1 3.90962 5.33332 42.3808
1151 1 5.17286 7.31411 42.3601
3121 1 6.22809 6.02779 44.3494
6691 1 4.9032 3.93038 39.4333
2429 1 6.06215 5.70218 40.5938
296 1 3.97819 6.93913 44.7003
6294 1 7.54114 3.31667 40.3646
5397 1 10.3258 5.23915 43.3386
709 1 7.66877 5.4874 42.273
2140 1 9.29859 5.88082 40.7248
2120 1 8.41522 7.1362 44.4518
2682 1 12.5517 5.23698 43.8394
6539 1 14.5954 4.19934 42.3806
3035 1 13.1359 5.15074 40.3588
2632 1 14.055 6.54756 42.0141
2269 1 11.7262 7.80521 43.3536
3431 1 11.425 3.41156 48.5093
4546 1 16.2291 5.76894 40.6574
5417 1 16.0198 6.57436 43.7546
7660 1 16.9191 4.45128 43.0099
2111 1 18.3982 6.35556 41.798
7097 1 19.2912 6.09465 43.8774
1962 1 22.4584 2.88816 45.2444
2998 1 19.2597 4.31348 42.4474
1648 1 21.4928 4.55244 42.7768
783 1 21.7369 6.936 40.1593
1965 1 20.225 3.92668 44.8819
350 1 22.7687 4.32598 40.4552
4854 1 25.3566 4.87816 42.0091
2118 1 26.0249 5.92493 44.1609
3884 1 26.9468 6.5802 40.9528
5120 1 24.1135 4.81977 45.0368
5913 1 28.3655 2.28651 43.5946
3084 1 25.1199 7.66493 42.4255
1882 1 28.376 4.30021 45.2191
1987 1 27.9854 4.83063 42.8285
7812 1 29.5716 8.76449 42.925
3273 1 29.1307 6.77803 44.0854
4355 1 30.662 4.8964 43.0632
3567 1 30.6142 2.84866 43.5039
7805 1 31.4046 7.44753 43.9194
1596 1 31.8978 3.13855 41.533
2397 1 35.9544 3.89751 40.8662
448 1 34.3311 6.34664 43.0895
695 1 30.7416 4.86099 39.935
2031 1 33.75 4.28112 41.1384
7650 1 35.4602 6.61973 40.8962
3259 1 0.287236 8.97432 39.5059
5311 1 3.41164 9.45911 44.9514
382 1 1.66317 10.5116 41.3816
6669 1 0.451557 8.14361 42.1593
1396 1 4.16852 9.47446 38.4268
6789 1 6.95338 8.29349 43.4875
7667 1 2.8044 8.45924 42.4671
2754 1 5.43945 9.90661 43.2603
7645 1 5.02182 9.27579 41.2049
2685 1 6.49213 12.8236 43.4987
4518 1 3.26094 10.788 43.1095
3631 1 4.94268 11.5715 44.9982
6615 1 6.97566 10.391 45.1156
3492 1 9.32947 7.43036 42.456
5962 1 9.10693 9.13661 39.7324
2850 1 7.3618 8.03742 41.1733
7966 1 7.88378 10.036 41.7885
2750 1 10.4695 10.2578 41.8127
6799 1 9.30665 9.26863 44.1866
6191 1 11.739 6.1422 41.9376
7389 1 15.2777 10.4455 42.6049
1653 1 12.7228 10.0411 42.6537
4848 1 13.8251 11.5099 41.1912
3988 1 14.2815 12.1317 44.1271
5149 1 11.4088 11.422 44.0658
6769 1 19.6366 8.34854 40.8571
7737 1 18.1812 12.3161 39.5732
2368 1 15.5898 9.57941 40.1367
1672 1 16.3223 8.01563 41.8785
4474 1 17.8285 10.1237 41.1993
3885 1 16.4459 12.1385 41.2737
6683 1 17.0691 12.0337 43.5517
6076 1 18.8415 8.91382 42.8475
6873 1 20.813 9.31594 38.9652
1638 1 20.7706 6.8422 42.2919
1092 1 21.0728 9.56458 42.3344
2778 1 23.1179 6.15789 42.4586
3330 1 22.8785 8.22854 43.5398
1729 1 19.2889 11.103 43.3091
293 1 25.8906 11.0163 40.2053
3319 1 25.4906 8.75299 40.5119
6050 1 23.57 9.70353 41.6876
3756 1 22.5489 11.3 40.2093
1237 1 27.4108 8.13213 43.1008
7192 1 25.6882 10.0077 42.5568
1236 1 30.5417 7.80998 39.9755
6126 1 31.0939 10.507 43.0576
2297 1 28.2025 11.0733 42.545
5566 1 33.4659 10.6852 42.6497
3871 1 29.5665 12.9497 42.6513
4639 1 29.9402 11.3961 44.6442
4295 1 34.4646 9.25622 40.4379
1182 1 32.2021 5.90706 41.8358
2692 1 32.4111 8.14981 42.0546
6932 1 36.4173 10.1312 42.1425
7577 1 34.6025 8.44429 42.4391
3402 1 35.1656 10.2686 44.3528
6915 1 1.41983 10.78 44.48
4841 1 0.930258 14.4735 44.0246
7892 1 1.55551 12.6815 42.5844
4471 1 2.91636 15.0369 42.5763
2206 1 2.78069 11.3433 46.319
7638 1 3.03005 15.5676 44.8857
3825 1 4.41423 17.0442 41.8797
1586 1 4.37574 12.7764 42.2836
2714 1 5.11871 15.0976 43.0574
2673 1 3.28787 13.4291 44.3579
2213 1 8.71035 12.0938 42.2883
3074 1 8.94319 11.7314 44.3677
5561 1 7.82041 14.4385 41.827
5593 1 11.6338 12.2142 41.5502
6624 1 10.3245 13.7093 44.201
6594 1 11.7962 15.5713 44.7726
3660 1 9.23542 15.7569 43.3036
5756 1 8.05266 14.3343 44.4071
4137 1 14.181 14.8911 44.7905
3332 1 12.6134 13.9373 43.0683
6718 1 12.5659 14.1118 40.5091
7869 1 15.1053 13.5483 42.175
2037 1 13.9171 15.883 41.9768
2519 1 15.8285 16.6817 40.3317
7555 1 18.5888 14.342 43.2507
4856 1 19.2564 13.0432 41.4468
2307 1 21.2124 12.6517 44.9695
7169 1 24.3558 13.0249 39.9415
2000 1 21.5325 12.2056 42.3989
5024 1 24.021 12.0247 41.8493
5191 1 21.4354 13.6063 40.3967
7031 1 21.2308 14.6205 43.4024
295 1 23.4522 14.2031 42.0605
2532 1 23.4017 13.4127 44.1747
3999 1 24.2428 14.6508 46.6679
5328 1 27.9766 14.5602 41.226
7889 1 25.8043 15.602 41.3936
5583 1 27.6927 17.1885 40.9873
6775 1 24.0026 16.5522 42.4617
4056 1 25.4109 14.4321 43.5595
1234 1 26.6285 12.5932 41.9287
1955 1 27.1712 16.1377 43.195
6439 1 27.5814 13.5919 43.8415
4063 1 31.8415 12.7438 43.7102
4117 1 29.5619 15.037 43.0817
4484 1 31.7587 15.5945 44.3516
7173 1 32.4798 12.1813 41.3729
1310 1 34.406 13.6538 40.5792
6431 1 -0.282592 14.3869 41.7307
2434 1 32.5584 15.0552 42.0685
7671 1 34.434 14.5584 43.6359
239 1 35.1941 12.4578 42.553
7261 1 35.9117 13.1439 44.6511
873 1 1.02857 18.6482 40.3608
7733 1 36.1074 16.2852 43.9266
6275 1 1.67097 16.2425 40.6167
3075 1 1.75956 17.2514 43.5159
4267 1 3.50819 18.2939 40.3923
5509 1 0.723422 19.511 43.4503
6121 1 6.50592 16.2674 40.1931
1951 1 3.25386 19.0516 43.0342
7110 1 6.26776 18.5407 43.5996
4367 1 5.69458 18.9485 41.2677
3636 1 4.05493 20.4331 40.4431
7347 1 8.16838 18.1805 40.9062
786 1 9.34276 16.246 40.9673
5892 1 11.3691 15.8552 42.0596
6236 1 10.6373 18.6081 40.1398
2524 1 10.4437 17.8475 43.4664
773 1 7.09135 16.8387 42.551
4842 1 12.0748 19.5825 43.2984
4454 1 9.6935 20.2072 44.64
6369 1 12.2806 17.8169 41.5979
4296 1 13.5204 16.882 44.0006
1390 1 14.693 18.4173 42.0345
2392 1 15.5339 17.9543 44.3084
5237 1 15.8449 15.6578 43.5395
6295 1 19.6315 15.5835 41.4588
3710 1 17.5605 16.4761 42.3323
5584 1 17.7645 18.5106 43.8555
7741 1 20.1407 17.1419 43.0276
1072 1 16.1154 20.5026 45.3318
3086 1 19.9953 15.9173 45.185
4993 1 21.9157 15.6601 41.578
7739 1 25.4134 17.5939 40.2351
2960 1 21.4888 18.0461 41.3422
3723 1 21.9509 18.4778 43.5964
1795 1 23.9656 19.1915 41.7613
6030 1 27.0525 18.7572 39.067
514 1 25.9624 20.0516 40.8714
2351 1 25.8302 18.093 42.4283
4279 1 28.1863 19.424 42.2571
6074 1 24.3169 18.4912 44.1383
1399 1 25.1404 16.2872 44.9584
6204 1 27.0767 19.2034 44.4586
2277 1 31.0814 19.1836 41.2945
6374 1 29.2137 17.5201 42.9308
7973 1 31.4864 17.1034 42.3475
442 1 32.072 19.3521 43.8333
2755 1 29.9525 20.0394 43.7916
145 1 33.4208 18.8259 42.0223
3019 1 34.2477 16.4547 40.674
1550 1 0.302041 17.8329 45.2138
1968 1 -0.468128 17.6394 41.9235
6600 1 33.8262 16.7851 43.7069
6359 1 35.2289 18.9684 43.9397
3237 1 2.38415 21.1086 44.4384
390 1 0.964717 22.4483 42.629
3961 1 2.11283 20.3468 41.5636
1652 1 2.31955 24.4022 42.2402
3149 1 -0.0408601 24.5898 41.2889
5418 1 3.71495 23.1475 44.5598
1799 1 3.4873 22.3767 42.1966
1264 1 5.36703 21.0238 43.1482
1259 1 7.77455 20.0718 42.8283
3261 1 6.31351 23.276 42.863
3648 1 7.89487 22.1671 44.2382
766 1 8.70314 20.3908 40.2417
671 1 10.2357 19.8974 42.2229
309 1 9.01493 22.4559 41.4583
5426 1 10.3713 22.1986 43.6576
6231 1 9.73911 23.0052 39.0937
1411 1 13.4075 22.2718 40.5182
1038 1 12.4797 18.793 38.8818
4443 1 12.9958 20.0544 40.7405
3107 1 11.4073 21.9056 41.5313
4282 1 14.387 23.449 42.6324
1728 1 12.6513 21.7585 43.2788
7332 1 17.2384 20.4738 42.3267
1412 1 16.2975 20.3738 39.7981
1671 1 19.6703 19.3616 42.4338
6070 1 14.9761 20.7557 42.4417
1087 1 18.048 21.9296 40.4239
4695 1 16.5712 22.3455 43.5507
6225 1 15.7275 22.327 40.7047
5889 1 15.9623 24.4971 44.5576
7559 1 18.8146 21.295 44.1034
2318 1 21.9776 19.5794 39.8969
7080 1 21.7447 20.4952 42.0029
5482 1 18.9302 23.798 43.7252
3110 1 22.183 22.9804 42.2216
6226 1 21.4128 22.3554 40.0652
1645 1 23.6462 21.3436 41.1448
3238 1 23.4669 20.8371 43.9418
5422 1 24.8761 22.8474 42.4096
774 1 25.718 20.6995 43.0391
7717 1 27.9578 21.305 40.4966
3415 1 26.3471 22.9539 44.6675
3630 1 26.6145 23.4041 40.6146
4861 1 29.4661 23.7162 40.9724
5679 1 31.9657 22.2082 43.5303
7958 1 30.1247 21.4167 41.5192
6781 1 27.5714 22.5927 42.5552
5906 1 29.5944 23.1034 43.2543
2522 1 34.9661 18.8435 40.3768
453 1 -0.253836 20.4058 41.4671
1844 1 31.7299 23.6745 41.8113
3583 1 35.5859 22.6291 41.4166
7582 1 33.6323 23.9135 43.4604
4529 1 34.7891 23.0049 45.7865
5115 1 32.6125 21.1243 41.3935
7756 1 34.2444 20.9443 43.5282
1321 1 -0.743984 24.3812 44.2887
3191 1 2.43501 26.7572 41.7981
7564 1 0.975225 25.8446 43.4801
4860 1 3.46641 25.8118 44.3346
7194 1 4.45614 25.0049 42.3089
7900 1 5.83277 27.5757 41.6877
3349 1 6.3025 28.0508 39.6023
6531 1 7.30721 25.8504 43.0253
6372 1 8.82104 24.1991 43.4378
7170 1 7.64475 24.2285 40.8195
4464 1 8.31499 26.7696 40.3852
6692 1 8.46066 26.7623 44.7847
5267 1 10.1744 24.508 41.1118
6843 1 11.012 26.9405 40.3956
4144 1 9.88932 26.4244 42.6628
1083 1 12.5654 24.8876 40.7443
226 1 11.9306 24.364 42.928
706 1 12.1851 26.7275 42.6598
3341 1 14.9798 25.8136 42.8456
2944 1 13.8241 27.0247 40.3626
7669 1 18.1309 26.0298 40.2205
439 1 15.1735 24.8681 40.5478
690 1 17.1142 24.4372 42.0129
2561 1 17.9449 28.1491 44.7412
6619 1 17.4254 26.2223 43.0631
6989 1 19.544 26.5383 41.7737
4395 1 19.7291 24.14 41.4337
5725 1 21.6606 26.6261 41.0697
2928 1 20.8213 24.8967 43.4364
3735 1 22.6008 26.5189 43.6707
1168 1 23.1696 25.1164 42.054
7738 1 24.8954 25.3782 44.1831
286 1 27.5423 24.7226 43.3773
1326 1 26.7309 26.5905 43.6247
3563 1 28.7696 24.4259 45.3151
848 1 30.126 25.4019 42.5402
5436 1 29.0933 27.9136 41.2296
1167 1 31.2012 27.8784 42.4793
3272 1 29.465 29.6492 43.9816
1837 1 31.8944 27.8697 40.383
3595 1 32.6029 25.9373 42.0769
2841 1 -0.255334 27.174 40.9261
5801 1 33.7483 23.307 40.6217
2399 1 34.35 27.6354 42.1717
2826 1 35.0156 25.4104 42.3266
530 1 33.0829 25.8013 44.6199
6687 1 1.85149 27.9322 40.0099
4938 1 2.75272 29 42.5788
3000 1 0.649997 28.7325 42.1781
6777 1 0.0858484 29.5912 39.8355
7015 1 2.94065 31.0813 43.404
4600 1 1.12039 30.9243 45.6856
3894 1 35.6918 29.5129 43.9387
124 1 3.94493 29.4852 44.5759
2193 1 4.13855 29.2547 40.1617
2137 1 5.20171 30.1402 42.5666
4704 1 7.43256 30.1395 40.8865
7562 1 10.081 31.3988 43.3873
6300 1 6.40892 29.161 44.5186
2400 1 11.5534 31.5221 38.7305
3981 1 12.9765 29.5767 42.4121
7513 1 8.01817 28.2283 42.4083
31 1 9.03605 32.3422 41.1184
5427 1 10.7857 29.0073 42.5038
289 1 8.19115 32.7581 44.6672
3560 1 14.8422 29.5423 40.7807
5348 1 11.0346 31.1569 41.0521
7881 1 14.9004 28.2711 43.1368
599 1 15.0207 30.9036 43.1114
5172 1 16.1339 27.1591 40.8435
3268 1 19.3177 28.6009 42.5621
3150 1 16.9841 28.8145 42.0021
7151 1 18.6022 28.0479 39.6278
4710 1 18.2918 30.6264 40.9594
2131 1 15.9657 31.6506 41.4102
6544 1 18.4816 30.9104 43.2031
4392 1 20.7349 29.1211 40.0066
5969 1 20.5371 30.7273 41.8868
302 1 23.0588 28.6951 40.3598
5914 1 20.8669 31.4268 38.9446
3651 1 23.4709 30.5798 42.2783
699 1 22.0314 28.616 42.2774
519 1 23.1055 31.0614 39.9174
2110 1 23.4966 28.6605 44.3416
3727 1 24.6074 27.4001 42.4194
7894 1 26.0077 31.2793 42.1731
4308 1 25.0972 29.3531 40.7479
1330 1 27.2882 29.3328 43.2512
1190 1 25.1696 30.0139 43.9022
5648 1 23.8534 32.7125 43.5824
3489 1 28.0899 28.6486 45.6922
6538 1 30.9501 32.1901 41.451
3585 1 28.3515 31.7498 42.2123
5336 1 30.6371 29.802 41.2332
6521 1 30.5153 32.2837 44.0114
6717 1 31.5506 30.0703 43.2086
365 1 32.0584 31.756 46.102
1574 1 34.5964 32.1418 41.1234
7996 1 35.9658 27.0736 43.6638
193 1 33.7363 28.0703 44.3614
4685 1 33.5364 30.7949 44.504
5094 1 32.8265 30.0146 41.3729
4451 1 35.0075 30.1452 41.7669
2132 1 32.8565 32.3858 42.971
4310 1 0.549341 30.9635 43.065
6046 1 0.175668 32.0551 40.6782
1786 1 0.88416 35.1668 43.193
4554 1 35.597 32.7709 43.585
2155 1 1.2576 32.9409 44.173
681 1 7.71123 34.5571 40.6489
2448 1 4.65432 31.4504 40.6254
637 1 4.36452 32.7999 43.0618
3026 1 7.79251 30.9809 43.2218
3253 1 2.02836 32.5224 41.963
6373 1 3.06442 34.7889 42.5893
5184 1 5.38067 34.5059 41.3365
4399 1 5.60449 33.8681 45.2844
1654 1 4.72135 35.9429 43.977
4758 1 11.5197 33.6478 40.0837
2599 1 10.9403 33.4256 42.5433
1904 1 6.49458 32.2286 41.3625
475 1 9.06147 34.6393 42.6477
4829 1 6.77335 33.5161 43.1356
3817 1 12.292 31.4391 43.3895
4064 1 13.7238 31.7492 40.5673
74 1 10.6963 35.6095 44.0409
1713 1 12.204 35.2648 41.974
2694 1 13.6695 33.1274 42.3888
4131 1 12.3553 34.1392 44.1569
5073 1 16.5467 32.6291 43.2273
4456 1 16.0226 34.2249 40.3758
7317 1 20.0134 34.6562 42.4139
7977 1 18.1428 33.1722 41.3166
7429 1 14.8849 34.9421 43.1877
4227 1 20.6375 33.0797 40.6379
3996 1 18.2223 34.2144 43.9295
7486 1 24.0895 35.4727 42.6737
7007 1 20.8403 35.3968 40.2296
527 1 22.2339 33.8016 42.0511
998 1 21.772 0.0164477 42.5547
544 1 23.4467 34.5563 45.102
3082 1 23.0209 35.8524 39.929
2361 1 20.1933 32.6384 44.0218
1022 1 26.2318 36.0855 41.6361
5244 1 24.5841 33.1275 40.958
4380 1 25.8989 35.0794 44.0268
2917 1 26.4207 33.4046 42.5083
542 1 24.9224 32.6234 45.7664
3586 1 28.7937 34.0886 42.6204
3991 1 29.8821 34.3946 44.8533
7477 1 30.2639 33.5874 39.7379
5175 1 28.7445 -0.185141 42.3834
6925 1 31.1997 35.6847 40.4875
218 1 35.1471 35.069 44.9759
5071 1 35.4264 34.3537 41.2376
1870 1 32.8556 33.8415 40.7018
6874 1 32.5034 33.8271 44.9618
2935 1 33.8485 34.6283 42.9457
2041 1 3.26817 -0.239942 46.441
4875 1 0.1466 1.14011 44.7946
5105 1 -0.140073 0.978173 49.6722
1198 1 1.36004 1.7989 47.0205
378 1 4.22508 33.8985 47.411
2127 1 4.50444 1.38625 44.8422
5902 1 3.76556 1.69264 47.4435
6156 1 6.34656 1.42464 46.8549
4700 1 5.86501 2.43151 48.8322
2779 1 5.36665 -0.925865 46.4844
3794 1 7.14348 3.79431 46.8926
8000 1 8.4637 2.46877 45.4122
3740 1 7.92078 1.37581 48.3224
6210 1 10.189 2.34627 46.9053
6297 1 8.87954 3.49607 48.7543
7351 1 10.6413 1.49777 49.5495
5500 1 9.68831 0.250335 46.3039
5873 1 11.5585 1.36075 45.0065
3576 1 13.9306 1.60762 45.8821
5487 1 13.3443 36.0723 48.3041
2291 1 16.1633 0.926694 46.4586
1504 1 16.6674 0.0425271 43.7305
2911 1 11.9031 0.946828 47.3963
1483 1 13.7388 2.223 48.2278
6298 1 18.3435 1.77917 45.1892
1028 1 19.6909 1.79308 49.1001
7887 1 17.9622 0.222062 48.6592
1981 1 19.8197 0.477522 46.6116
2217 1 17.7551 2.43281 47.744
5016 1 19.5846 -0.298936 43.8561
6447 1 20.0136 2.8069 46.8223
1171 1 19.9033 34.6891 46.0217
2358 1 22.2582 35.7666 47.0219
4228 1 22.426 3.08685 47.8888
5671 1 22.3991 1.19558 46.3467
3413 1 21.2253 0.441904 48.5591
1986 1 23.5762 1.02218 48.5769
3095 1 24.4036 0.0638539 45.6408
5750 1 24.7781 2.01167 46.7261
129 1 24.2874 4.51364 47.527
7200 1 27.0112 2.59089 47.8149
6763 1 26.6846 4.95151 48.9625
5652 1 29.6771 2.34666 45.6655
5757 1 30.8951 -0.41802 45.7436
7840 1 28.9372 35.7083 49.7201
2440 1 28.991 0.871362 47.6363
7837 1 30.974 1.9239 47.2816
5246 1 28.0194 -0.54067 45.024
857 1 33.9756 0.519966 45.7133
3666 1 -0.458523 0.0191159 46.8814
4630 1 32.2074 1.11474 49.5292
6203 1 33.3524 1.97807 47.384
3397 1 34.5589 0.353859 48.3705
318 1 34.4524 3.33757 45.4733
4440 1 35.7632 2.46687 47.333
2605 1 0.907588 6.44226 45.7548
463 1 0.280112 4.50827 47.3432
2528 1 3.516 4.0979 49.1599
2675 1 1.38867 5.40904 49.5969
5668 1 2.31839 4.12343 46.0564
1492 1 0.306844 3.80933 44.5654
2615 1 4.05796 4.12622 44.4152
5320 1 2.40004 2.21544 49.1582
6527 1 4.72643 3.84544 47.2132
2144 1 7.64189 5.69002 48.3179
4641 1 4.90708 6.02392 47.3417
5978 1 6.21577 3.72067 44.7477
1199 1 7.34021 6.06485 46.1966
4372 1 9.74162 4.75326 46.8585
1026 1 10.5202 7.051 45.3291
2688 1 9.76112 7.06405 47.8863
3168 1 10.2418 8.84493 49.8114
1012 1 12.9573 4.91688 49.5345
609 1 11.8797 5.55112 47.4417
6716 1 12.6663 3.80131 46.3124
3789 1 12.9357 7.00177 45.4048
630 1 14.1048 5.04198 47.7156
4880 1 14.8963 4.84505 45.0133
5008 1 16.2893 5.27559 47.5977
7998 1 15.5807 3.14495 46.8667
4051 1 17.9151 4.14364 45.9065
878 1 17.489 6.67112 45.6814
3958 1 18.9748 5.29293 47.6873
7478 1 20.788 6.45359 48.4722
7074 1 21.5282 4.75043 46.9326
6445 1 19.9843 6.53092 46.0967
2538 1 24.5415 6.22489 48.971
3716 1 21.8587 5.61461 44.9068
5516 1 28.0508 5.6866 47.0387
3178 1 23.1153 6.92572 47.0862
1902 1 26.6676 7.62083 49.5308
3754 1 25.774 6.39328 47.1035
3184 1 22.4971 4.72487 49.5265
701 1 26.1854 4.23263 46.0394
2065 1 28.6432 8.46038 47.9588
5987 1 29.1028 3.83389 47.8137
121 1 30.7607 4.83947 45.492
3498 1 30.1182 7.13475 46.2613
7154 1 30.6622 7.67618 49.1161
3087 1 33.455 5.97565 48.6977
2059 1 28.6982 6.22452 49.255
4 1 30.9803 5.5016 47.9971
6440 1 32.8776 4.32528 43.8726
7280 1 35.018 5.66486 45.4143
2125 1 34.7555 3.9268 49.0632
7751 1 33.013 4.24278 46.9983
3821 1 32.9167 6.11846 45.5623
5347 1 1.69285 8.18525 44.4516
2157 1 2.6104 5.75924 47.5849
3412 1 2.52937 8.169 46.496
5409 1 1.3814 10.0165 47.7207
5342 1 35.8892 9.50114 48.1407
7161 1 0.466869 7.64248 47.8787
464 1 35.8202 5.96741 48.6962
7265 1 -0.130412 8.73222 45.9704
5265 1 3.62584 7.4661 48.8255
6519 1 5.90191 8.13359 45.5093
559 1 6.34642 7.85556 48.0176
7488 1 4.49263 9.4842 47.2513
3649 1 6.63885 10.4296 47.3818
2769 1 5.62663 9.23352 49.5875
7735 1 8.32669 8.73555 46.4995
5744 1 9.33104 10.6835 46.5556
5430 1 8.57236 10.2479 48.8254
7440 1 11.9042 11.3236 46.6558
946 1 10.8023 9.18384 47.4701
2834 1 14.2697 7.88082 43.6176
2827 1 15.1276 7.65714 45.9615
5182 1 11.4476 9.12847 45.2137
4960 1 14.3443 12.0554 46.4892
6688 1 13.8012 9.40737 45.4546
2046 1 12.9083 8.02791 47.7943
6056 1 13.3698 10.6202 48.1362
2945 1 16.8697 8.59892 44.3907
6541 1 15.7305 10.6559 45.0871
3591 1 17.4732 7.70172 47.5949
5758 1 18.7872 8.71169 45.7631
1316 1 18.8919 11.2489 45.6451
1584 1 15.6588 9.71356 47.4165
7310 1 24.4766 7.57155 45.2518
864 1 22.7185 9.90131 46.3719
5163 1 20.9617 7.76077 44.5549
3565 1 20.5908 10.7346 47.4303
3158 1 22.7576 10.8751 43.7115
7235 1 24.5139 10.63 48.3832
3182 1 20.9831 8.2568 47.0889
7910 1 18.2766 10.3164 47.5418
853 1 26.0223 11.6945 46.8876
2856 1 24.4456 9.74166 44.6606
6312 1 25.0449 8.50037 47.8803
6943 1 27.0203 10.5439 49.2309
1007 1 26.5865 9.33407 46.3756
4711 1 27.5236 7.44832 45.4825
7407 1 25.7041 12.0521 49.9217
4350 1 28.9014 9.16303 45.1095
920 1 31.2531 9.51978 45.5288
5012 1 31.3811 10.4404 47.9222
1752 1 33.2082 11.823 47.7207
4303 1 28.6792 10.7619 47.0523
6377 1 33.3319 8.5048 44.9299
3566 1 32.2446 8.03558 47.2334
6320 1 35.6697 7.72435 44.2667
4599 1 34.6415 7.55263 47.18
7114 1 34.5415 10.8037 49.301
798 1 33.815 10.0295 46.55
3018 1 -0.558446 12.422 48.4375
2995 1 2.27821 12.0376 48.4247
2790 1 1.33476 13.1437 46.0609
284 1 34.909 13.4853 47.007
6368 1 0.274232 15.4212 46.4977
1805 1 3.3616 14.0496 46.8176
4543 1 1.51974 14.1433 48.4787
4286 1 6.5881 16.0327 44.6611
1160 1 4.85549 12.1934 47.2379
7160 1 5.18272 11.6884 49.6999
362 1 5.63709 14.0404 45.4248
1073 1 6.0085 14.2441 48.1944
2211 1 7.68371 13.044 46.1191
2640 1 4.1067 13.7726 49.6149
5161 1 9.56983 14.6207 46.0699
1756 1 10.0321 12.7336 47.4145
3662 1 11.394 15.0404 47.0951
451 1 11.1761 13.9314 49.2197
1724 1 7.55307 16.0665 46.9919
7580 1 8.7795 14.8027 48.4351
5915 1 12.2904 13.4987 45.8404
6444 1 13.0574 12.7608 48.7226
3092 1 15.693 13.6555 47.6964
3358 1 12.65 16.9696 46.4393
4129 1 13.6818 14.6422 47.3777
1077 1 16.7319 11.9412 46.809
360 1 16.106 13.543 45.0628
2455 1 19.5405 14.6784 47.2073
380 1 19.0617 12.5062 48.1397
5505 1 17.2598 15.7911 47.7625
6854 1 21.4607 17.557 45.824
1313 1 18.2769 13.4447 45.7018
4152 1 20.8809 9.95609 44.7609
1582 1 21.6493 12.8791 47.1534
2939 1 22.0231 14.8163 45.9511
2457 1 23.8105 12.1857 46.3699
3414 1 22.6455 15.6449 47.8626
3252 1 25.3383 12.0471 43.9971
5895 1 27.4248 11.0578 44.8494
1649 1 25.892 16.8898 49.1045
7438 1 27.7777 13.0312 48.8363
6767 1 26.2571 14.0519 45.7414
2765 1 25.5574 13.7771 48.3384
943 1 29.6556 13.2297 50.6575
5181 1 31.5647 11.7758 45.9414
4863 1 30.0359 13.881 45.1095
4913 1 28.2931 13.0955 46.1905
6057 1 30.315 12.7938 47.5099
4211 1 32.6552 14.1785 46.0815
6066 1 31.763 14.4524 48.1833
6143 1 34.1753 13.3633 49.1095
3173 1 36.3411 11.1873 46.3676
2846 1 33.6567 11.899 45.1318
6999 1 -0.793619 16.0407 48.5949
7406 1 2.5882 18.0364 45.4302
5255 1 0.467946 17.9668 48.0258
461 1 3.2813 18.4121 48.0904
4947 1 1.90506 17.3381 49.6394
1245 1 2.32144 16.1972 47.2222
1890 1 4.65368 16.9364 44.3475
5515 1 5.92516 18.2887 46.1591
61 1 4.29586 19.9283 44.8819
3262 1 4.85901 16.0933 46.8555
1030 1 8.46392 17.4742 49.3303
7960 1 8.21933 18.1321 44.6807
2997 1 5.72135 17.6582 48.3537
3508 1 9.83676 16.9177 46.1191
640 1 8.6084 18.5835 47.1691
2545 1 10.7516 17.1666 48.4852
6754 1 11.4384 18.624 45.4376
134 1 15.4992 16.6345 46.2633
7101 1 17.3783 18.3676 46.2247
4943 1 16.1742 17.7528 48.6062
6154 1 14.7479 18.8088 46.7443
141 1 19.3305 17.0858 47.0091
5954 1 17.5969 15.9646 44.9897
7986 1 19.9818 18.8246 48.0658
3176 1 19.9387 18.6331 45.0445
541 1 16.7823 20.1043 49.7624
3739 1 21.3486 20.3915 44.3549
7578 1 20.6964 16.822 48.721
3759 1 22.8691 16.2601 44.4979
7413 1 22.516 18.7563 47.7563
4550 1 21.7351 20.8108 49.5278
4763 1 23.9489 17.2804 46.9739
4547 1 23.5537 16.9988 49.5531
2617 1 21.0024 21.1651 47.1619
3495 1 27.3114 14.9894 49.3211
1750 1 25.9914 18.3663 46.4185
4785 1 26.3 15.8695 47.1647
3090 1 27.202 19.0696 48.4518
6945 1 28.9807 14.8155 47.6705
7000 1 30.404 16.2663 46.3876
1897 1 28.2849 16.4595 45.2408
5485 1 31.2662 18.4369 47.4549
1181 1 29.1058 19.0424 46.4083
782 1 30.4218 17.7153 44.8987
5504 1 28.1063 17.3134 47.4486
1500 1 34.5098 15.5776 45.6591
3900 1 35.0498 17.6103 46.6344
1497 1 33.0279 18.5869 45.7439
2376 1 32.4757 16.6547 46.9119
6233 1 35.4537 20.1581 45.7273
5581 1 33.9601 15.5692 48.2271
5318 1 1.69929 24.0377 44.8017
2463 1 1.76885 22.2701 48.5689
4724 1 -0.664358 20.2978 48.2359
6224 1 -0.571524 21.6279 44.0597
628 1 36.1032 23.0449 48.2972
5998 1 1.9393 19.8324 46.8155
5081 1 3.05876 21.8237 46.6417
2373 1 4.13677 23.3372 48.8298
4925 1 4.69763 20.3153 47.0754
6454 1 5.89158 22.0477 45.4197
4045 1 7.01725 23.127 47.3729
4558 1 6.89552 20.0452 47.3885
799 1 5.80822 21.4093 49.3442
3965 1 6.94004 20.1502 44.8988
3524 1 8.55937 21.5283 46.4615
1025 1 12.105 20.9232 45.7512
2056 1 9.91405 24.4334 45.4963
7753 1 11.4244 22.7125 47.5874
5674 1 10.2962 19.95 46.901
842 1 13.7337 19.7191 44.9182
7249 1 14.6741 19.5067 49.0541
792 1 12.7033 19.3323 47.6744
7426 1 13.6341 21.6493 47.7858
3577 1 11.9357 23.1116 45.0806
6611 1 15.7057 23.4033 47.2393
2034 1 14.3197 22.2074 45.321
3416 1 18.8944 20.9652 46.2098
2767 1 16.7566 20.7444 47.4699
6290 1 18.3899 23.3793 47.6614
7655 1 16.9886 22.639 45.6103
7565 1 18.8858 21.0975 48.542
5832 1 15.7177 22.5018 49.5681
3814 1 22.7618 20.2562 46.1381
7275 1 18.5816 25.901 45.316
4444 1 19.4076 23.5719 45.8127
7644 1 20.9773 22.7113 44.3101
7103 1 24.2684 24.9664 49.5437
1020 1 23.0512 21.8134 47.9302
2294 1 23.8553 22.3527 45.688
6033 1 21.6669 23.2149 46.5919
2116 1 23.605 19.4795 49.8201
399 1 27.5755 20.7665 46.7257
5827 1 25.2486 20.4139 45.2668
4377 1 25.6196 21.8745 47.4707
2699 1 24.6415 19.6443 47.8392
7917 1 28.993 21.4717 48.5643
6847 1 26.6192 20.9954 49.6273
3838 1 26.8768 23.6849 49.5205
2049 1 28.0552 21.3592 44.7037
5261 1 30.7584 20.6338 46.0192
3657 1 29.5053 24.3416 47.7059
5669 1 29.4342 19.3563 48.8503
149 1 31.432 20.8304 48.188
3578 1 30.2588 22.8837 45.8304
512 1 0.725786 21.8148 46.5424
4607 1 32.9786 21.0777 45.8868
1341 1 33.6368 19.7263 47.8653
150 1 34.0671 21.934 48.0867
4516 1 -0.125473 26.4509 48.1238
3877 1 1.19079 26.1839 45.7584
6516 1 2.47176 24.2365 46.8786
3031 1 -0.338983 28.0511 45.879
7579 1 -0.132291 24.5125 46.6145
7181 1 3.06534 27.8861 45.9281
6321 1 2.26951 26.3241 47.9679
7437 1 4.46256 27.8836 43.4481
2921 1 5.67864 25.1155 44.4659
3352 1 4.53189 26.1629 47.3465
3511 1 4.92885 24.0532 46.4242
7913 1 7.49572 26.1046 46.743
7823 1 8.96596 24.5439 47.9817
3659 1 8.4229 26.4415 48.8648
381 1 7.58853 24.0748 45.398
7150 1 9.80394 26.5574 46.8884
4531 1 12.4923 24.7619 48.0065
1262 1 10.9559 26.5277 49.1382
3247 1 10.9289 27.0542 44.6971
396 1 13.0668 25.1418 44.4803
5187 1 13.3426 26.1823 49.6617
5663 1 10.3352 28.7153 46.6144
2271 1 12.136 27.2853 47.0203
618 1 13.2846 27.6775 44.7494
7187 1 14.7137 25.5538 46.841
2993 1 15.6496 27.139 45.4063
6378 1 20.3152 27.1749 44.1141
6796 1 19.8767 25.3445 47.9515
2147 1 15.9624 25.0299 49.029
4941 1 16.921 25.5576 47.026
4552 1 17.9631 26.9433 48.9843
7888 1 18.9441 27.4178 47.0223
4218 1 22.9733 24.0711 44.3985
1787 1 22.1208 26.1345 49.7802
2543 1 23.0716 26.5158 45.8668
4314 1 22.3525 25.101 47.9034
5980 1 21.2258 25.4689 45.7589
855 1 21.7933 27.3416 47.8487
7106 1 26.467 25.6962 46.1306
1656 1 24.4837 24.1541 47.2453
2777 1 25.5739 28.1374 45.424
6623 1 26.1815 25.6898 48.6969
5160 1 31.0284 25.2282 44.8128
3485 1 27.6127 27.0934 47.6689
7654 1 27.597 23.2803 46.7505
2782 1 31.1161 27.7569 45.0887
1887 1 28.9943 27.1547 43.7451
6834 1 32.1402 23.2095 47.8148
2061 1 29.7417 26.6172 46.7662
2208 1 28.6612 25.5891 49.4691
4917 1 31.9868 25.496 47.2335
2150 1 32.4059 23.5062 45.4887
2924 1 34.1824 24.4926 47.5424
5753 1 35.0517 26.0236 45.8537
5554 1 31.1391 25.5253 49.4247
4786 1 33.6267 26.2574 49.1557
1993 1 1.5917 28.8035 44.5849
156 1 1.7123 28.9714 47.5966
5808 1 35.0474 28.0024 47.909
5259 1 1.22222 30.9597 50.4981
5718 1 -0.277342 30.4551 47.9607
6852 1 3.45137 30.4391 46.872
6122 1 6.01706 31.6528 44.8686
781 1 5.33117 27.3281 45.6434
3028 1 9.55843 31.2267 45.8189
5519 1 5.45204 29.4732 46.5128
7254 1 6.4856 27.6491 48.2547
6712 1 9.386 29.4408 44.2619
4851 1 7.79073 28.6093 46.3533
3990 1 7.69322 29.9336 49.5863
2442 1 9.52438 28.8145 48.8084
6520 1 10.9502 30.6879 47.9205
5821 1 12.8979 29.4964 47.1732
5344 1 11.7121 29.4591 44.6962
3970 1 13.9198 30.4403 45.3147
7430 1 14.5011 27.805 47.4678
298 1 13.731 31.7278 47.1886
1284 1 11.8116 31.6143 45.85
4190 1 16.369 29.727 44.6864
459 1 19.6813 29.7359 44.9902
5835 1 16.3714 28.6754 46.9598
1589 1 15.0065 30.0942 47.9962
5405 1 18.0437 30.4849 46.6623
4361 1 17.4819 29.088 49.3558
4927 1 17.8432 31.7496 48.4145
4774 1 16.0079 31.4965 45.7808
865 1 18.6817 32.3364 45.5577
3673 1 21.6469 28.9233 45.944
1561 1 21.9606 30.564 44.1937
2212 1 20.66 31.2198 46.623
4549 1 23.2059 29.4024 47.3305
4633 1 23.6494 31.9726 48.3607
5997 1 21.2695 31.0869 49.4821
5839 1 27.1201 31.2944 44.6572
5437 1 25.5011 30.3534 46.1965
435 1 23.2271 31.3001 46.1858
5030 1 25.9325 28.7752 48.6103
3073 1 24.4833 27.2498 47.7725
6603 1 27.6524 30.7702 47.3659
3728 1 29.653 31.2312 45.854
6929 1 29.3637 28.7926 48.0216
3574 1 27.5619 29.2364 49.8364
4208 1 31.9687 29.4293 46.6016
6940 1 31.8207 27.9938 48.4569
2555 1 30.6846 30.9084 47.9688
5636 1 34.4489 29.848 46.4239
2295 1 34.5641 32.4965 48.0776
6211 1 33.1119 27.4802 46.4941
2516 1 33.5982 30.0865 48.5802
4555 1 2.10852 32.9188 46.7621
1000 1 0.868403 35.2325 45.7098
793 1 1.98502 33.3502 49.3371
2060 1 35.6105 34.6907 49.6898
5684 1 0.993513 34.8582 48.0483
5199 1 3.24507 34.5384 44.9829
4852 1 3.77664 32.2887 45.4155
4644 1 3.0584 31.2568 49.1592
6288 1 5.4418 31.7514 47.2183
6997 1 7.51005 36.2946 47.245
5159 1 7.51451 30.7933 46.9529
6869 1 6.5887 32.0031 48.9707
4209 1 9.06509 32.1377 48.5216
1481 1 10.4019 33.3119 44.8197
1595 1 7.96068 35.1404 44.7314
4070 1 9.48627 34.4446 46.5786
5885 1 8.35198 35.7803 49.6509
5022 1 14.2933 33.1862 45.3535
5089 1 11.6358 35.3256 46.252
1565 1 10.0559 34.0635 49.3142
1678 1 11.4055 33.3196 47.7511
7349 1 14.3352 35.9132 45.6274
1789 1 13.809 33.9305 47.3327
1647 1 11.7405 -0.387118 50.2115
4612 1 16.2512 34.7121 44.9958
1488 1 15.8355 32.8683 47.6049
7820 1 18.0875 36.0461 45.8649
1800 1 15.9449 35.6061 47.593
680 1 17.6902 34.04 47.011
3333 1 21.6119 35.9319 44.6261
4305 1 19.5467 33.1537 48.4552
368 1 22.014 33.2273 49.3462
923 1 19.8177 35.4239 48.4362
2922 1 21.7746 33.2041 45.9561
1657 1 22.4887 35.4666 49.3712
233 1 26.5401 -0.170116 46.8627
1339 1 27.8743 33.4149 50.4647
1875 1 26.3927 34.3635 46.3827
5644 1 28.1577 33.0231 45.6589
4608 1 24.5436 35.3371 47.6298
3513 1 26.0785 32.6672 47.5947
1349 1 28.4745 33.0333 48.1421
3187 1 26.9614 34.9354 48.7135
3899 1 30.8995 35.6113 47.9439
1759 1 32.9213 35.5159 46.453
7243 1 30.4422 33.2527 46.6644
1351 1 28.5284 35.1632 47.0552
7676 1 30.5968 33.468 49.33
3318 1 31.9922 31.7708 49.648
545 1 34.8083 34.9833 47.4903
441 1 -0.330777 32.8639 46.6887
3434 1 32.4515 33.3854 47.6106
7246 1 33.7537 32.7732 50.1895
3024 1 34.4271 32.5572 45.6551
1600 1 29.4675 1.85215 36.3798
2241 1 2.59564 3.0259 53.7036
6397 1 0.0549699 3.1911 49.3443
3562 1 2.076 0.959774 51.5737
1912 1 -0.125474 -0.153411 52.3432
3099 1 5.33829 -0.525666 48.5773
4376 1 4.37813 1.60073 53.2061
2122 1 6.32385 2.33704 51.4516
7112 1 6.84346 0.488348 53.073
2236 1 2.55191 -0.1276 48.8244
924 1 10.3864 -0.49677 48.2285
4850 1 10.7058 3.51327 51.0047
4467 1 8.86822 1.25968 51.1954
4460 1 9.00031 0.582991 53.6332
7480 1 10.9755 1.04003 52.0256
3500 1 8.61674 2.95966 52.6686
6686 1 15.5704 3.12935 53.8846
6064 1 12.7837 2.37366 50.4786
2954 1 12.6752 1.04147 53.5682
3580 1 15.5291 3.70864 49.7234
7761 1 13.9568 0.300642 50.8317
2909 1 15.3432 1.83749 51.8388
1278 1 17.4286 2.00175 50.4407
7279 1 17.7349 1.87387 53.1078
7600 1 15.721 1.26336 48.7947
7879 1 16.0446 4.59979 51.874
7826 1 19.5405 -0.163099 50.5835
2363 1 19.5458 2.31248 51.6535
5965 1 22.0576 0.0846924 51.5032
7119 1 21.8038 2.24555 50.2405
3650 1 23.9644 1.20599 53.6356
5897 1 20.023 0.516912 52.7038
6838 1 23.7295 3.39261 51.6539
5975 1 20.9407 12.0545 36.1133
4834 1 24.0445 1.15909 50.7448
4951 1 25.9719 2.31061 51.9977
1352 1 24.4796 3.37268 49.5796
7752 1 27.1448 2.56761 49.9869
7675 1 26.7833 0.387537 49.361
1496 1 28.9891 16.4242 36.5889
204 1 31.1921 35.877 50.5131
2123 1 29.7913 1.0343 50.2074
5490 1 29.1274 2.58616 51.9613
4697 1 27.7802 0.316676 51.6614
3323 1 29.74 34.1747 51.6591
2200 1 34.7673 35.2582 51.5126
274 1 32.8328 0.023587 51.8697
1804 1 31.5399 1.81081 51.8078
6051 1 34.5352 2.18614 50.7128
7321 1 4.26793 9.8335 36.1158
3734 1 34.4794 3.45312 53.4489
768 1 12.2807 33.4639 36.1458
2619 1 1.92946 3.35177 51.2048
4866 1 0.0217112 2.28768 52.3779
6119 1 1.8195 5.26783 52.6321
5600 1 20.8201 9.23185 53.4753
6061 1 6.00594 4.5732 49.8536
6543 1 3.57891 5.79513 51.112
4930 1 4.19867 0.972764 50.3452
6640 1 5.59646 6.76665 49.9886
1088 1 6.05078 5.26255 51.9646
6459 1 7.92683 4.00616 50.8079
6948 1 10.5693 5.77175 49.6628
56 1 10.1176 7.51504 51.6267
4955 1 11.691 3.17496 53.0588
6357 1 8.04087 6.17014 50.6286
6069 1 12.0209 5.48943 51.8635
7581 1 9.6566 5.18545 52.2854
3977 1 8.39645 7.0106 53.2338
7731 1 15.2115 6.01125 50.0681
613 1 12.3191 8.12083 52.3736
5168 1 13.7639 3.71543 52.2602
4954 1 12.7004 7.05689 49.8189
7251 1 14.0502 6.34266 52.0988
4048 1 17.1075 6.30143 52.6483
4358 1 17.771 4.43644 49.6418
868 1 19.592 5.85075 50.3959
4457 1 18.728 7.95253 51.1157
306 1 29.9846 23.6371 54.0284
5803 1 17.3042 9.30985 50.0061
6388 1 17.334 6.68817 49.74
4210 1 19.2378 8.17128 48.9991
6534 1 20.1021 4.17044 49.0141
6866 1 21.1809 4.59318 51.8197
147 1 22.1047 6.9613 50.458
3398 1 21.49 6.82343 53.1785
7412 1 23.7018 6.09289 51.7976
5119 1 22.6716 8.5392 52.1196
1746 1 27.9333 4.51245 50.8909
5250 1 25.6719 5.1372 51.0504
5824 1 27.3935 3.87005 53.2901
3674 1 25.7193 5.39239 53.4902
4604 1 29.2099 5.07305 52.7079
6622 1 29.3447 2.94886 49.7421
224 1 31.7157 3.41656 48.8063
2436 1 31.7382 4.25936 52.6929
1153 1 2.9714 18.1444 54.0321
3163 1 30.5012 5.24718 50.7961
5742 1 35.0468 6.21533 51.0924
7175 1 0.0695288 7.24851 52.289
6542 1 33.3783 5.97793 53.0347
5955 1 36.0479 4.52913 51.8396
313 1 33.0952 3.98275 50.6419
2876 1 3.05431 9.95003 49.6919
4195 1 1.6342 7.76483 50.2372
4719 1 0.773689 10.5217 49.8594
1357 1 2.09135 9.93973 52.0825
3820 1 2.40595 7.68038 53.0577
288 1 25.4754 33.2228 52.2981
4849 1 4.17242 8.29526 51.1005
3010 1 21.243 24.5327 53.5478
1034 1 9.03734 30.4316 36.6616
2289 1 4.95003 10.4576 51.8349
436 1 6.38151 7.63406 52.0006
6864 1 7.96963 7.99534 49.6338
4239 1 10.9723 11.3274 49.0267
2875 1 9.72798 11.2411 50.6586
3569 1 7.10404 10.4251 50.4222
5359 1 10.9501 12.7463 51.8062
6920 1 3.40926 34.0718 36.0165
1173 1 14.0515 9.86766 52.5076
1011 1 15.0649 7.4207 48.4677
7156 1 13.0202 11.3781 50.6396
7878 1 12.6313 9.31447 49.9775
4999 1 15.2502 9.83627 49.7709
5634 1 15.7483 8.04998 51.582
4795 1 17.225 11.6608 49.3801
6461 1 18.5817 10.3935 52.0196
6995 1 2.5744 27.8952 36.2809
6480 1 19.6415 10.3129 49.4314
1005 1 16.402 9.63685 53.4802
5243 1 36.0286 7.33356 36.5075
7659 1 21.8741 11.0191 52.3574
4159 1 35.5469 11.8795 53.2158
7554 1 21.0245 9.03386 50.7368
2798 1 22.409 9.25549 48.709
119 1 24.4012 8.52425 50.1183
4234 1 27.1302 6.83331 51.6356
5643 1 29.6182 11.1339 49.6416
1322 1 25.9314 9.97876 51.4062
6361 1 27.8157 9.23473 52.5856
6795 1 23.0727 10.4162 50.5245
5489 1 15.2332 17.7316 36.0304
7648 1 30.6805 11.0101 51.7036
4071 1 32.2308 6.99117 50.8201
2540 1 28.7618 8.71561 50.3747
3714 1 30.0575 7.27441 51.9382
6314 1 3.25135 30.4577 51.4951
72 1 31.6823 8.86559 52.4049
6280 1 31.5365 9.31645 50.2302
1821 1 26.7337 35.126 51.1584
6124 1 33.5272 8.65525 49.368
5396 1 34.0381 8.48667 51.6962
4147 1 36.1202 8.26438 50.0869
5091 1 33.3882 10.7093 51.3613
2478 1 -0.556 10.2185 51.6666
4047 1 2.26089 14.9651 51.1472
6875 1 1.33973 12.5586 52.8696
7920 1 -0.535714 14.3581 49.7226
6927 1 3.09494 14.7764 53.4132
1256 1 1.17561 12.7889 50.4571
6213 1 1.37908 16.5781 52.8695
2278 1 3.76824 12.3922 53.2147
1665 1 6.80216 11.7264 52.5387
1807 1 3.29179 11.885 50.5779
1499 1 4.97786 15.2149 51.3899
3393 1 6.82731 15.9889 49.8195
2149 1 7.24725 12.4114 48.7847
1274 1 6.83601 13.3778 50.7729
7124 1 7.69319 15.8784 52.2275
1970 1 19.7626 21.4865 53.2006
7573 1 12.2284 15.7409 49.8921
2860 1 9.7302 15.151 51.0021
6833 1 9.00982 13.2499 50.1508
5496 1 11.3334 14.5504 52.9294
6285 1 8.79327 13.5969 52.5013
7890 1 15.0824 12.3299 49.6609
2156 1 16.1173 10.9047 51.5171
2780 1 12.9605 13.6365 51.0901
7269 1 14.5398 14.6518 49.7174
5235 1 12.9805 15.8041 51.7484
2304 1 14.9886 13.6574 51.8822
6222 1 16.7832 16.0267 50.9011
6039 1 17.1016 13.9484 49.3604
6857 1 17.6702 12.4449 51.8828
4509 1 18.8155 15.6999 49.6352
7663 1 19.9116 12.3928 52.5403
3409 1 19.074 12.6247 50.2372
1346 1 21.3763 11.7157 49.4809
1717 1 20.9245 14.1686 49.1445
4199 1 23.5019 12.6294 48.8581
7263 1 3.74698 21.9486 53.6809
5325 1 33.3503 15.9378 53.3661
1879 1 27.7278 11.5828 51.1953
3015 1 21.4176 13.3372 51.2077
4783 1 23.7794 12.5505 51.2145
1661 1 25.2247 14.4292 50.9019
558 1 24.4228 14.1742 53.1986
3561 1 32.1607 12.2968 49.6807
7491 1 28.4389 12.2856 53.8082
4383 1 29.5586 15.526 50.5292
2941 1 30.8469 13.3226 52.7225
5079 1 13.9574 31.1401 35.7646
6286 1 27.5368 14.1881 51.5823
4933 1 31.6928 14.349 50.626
1200 1 0.0488381 14.442 52.2082
528 1 35.6124 12.6625 50.822
6384 1 33.3249 13.0915 51.914
5818 1 34.2384 15.3588 50.6571
1407 1 34.7308 14.0547 53.4643
1989 1 30.7955 15.5391 52.6752
2695 1 -0.10636 16.561 50.8438
1257 1 1.75055 18.7267 51.7992
2857 1 -0.320678 18.5454 52.7746
5007 1 33.3104 9.78785 53.4293
4128 1 -0.282872 20.16 50.8541
2861 1 3.53068 17.0586 51.6062
3249 1 4.85567 18.8749 50.2073
7760 1 29.8742 29.3669 36.8421
377 1 4.1963 19.533 52.5892
5254 1 4.02385 16.0074 49.1775
5251 1 5.96954 17.6484 51.8442
3954 1 7.24987 19.3467 50.4175
1886 1 8.85278 28.5391 35.1808
1014 1 12.1435 22.7551 53.726
1179 1 10.3865 19.1733 49.7391
2479 1 10.858 17.2984 51.4673
7902 1 8.13929 19.9948 53.113
2050 1 8.83168 17.8587 51.6715
4229 1 10.8607 19.7075 52.0484
1196 1 24.1491 10.6005 52.6948
455 1 12.6363 18.735 50.0052
7831 1 13.5326 16.9892 48.5882
6464 1 14.9045 17.3125 50.506
6635 1 13.2523 18.1411 52.7129
2918 1 19.3717 18.9149 53.0545
1319 1 19.3234 17.1035 51.5933
4937 1 15.0973 19.4757 51.8869
2620 1 17.1951 18.1534 51.603
1017 1 19.6794 19.4201 50.2376
3322 1 18.2054 17.7926 49.5421
7017 1 13.3464 27.8973 53.5235
1889 1 15.2436 16.0758 52.6977
7255 1 21.6032 17.9583 52.7559
7885 1 21.5403 18.3833 50.4602
1743 1 21.4088 15.9243 50.865
227 1 23.1151 15.9429 52.5662
4452 1 24.6263 35.5169 49.8543
3342 1 25.5479 19.2818 53.7462
5185 1 24.0362 18.4676 51.68
3423 1 23.3144 14.6521 49.9695
3251 1 25.4361 16.6341 51.7676
5733 1 25.9893 18.8287 50.5314
952 1 27.5986 17.427 52.4311
279 1 25.703 12.3941 52.3234
2221 1 29.9289 18.0126 51.7376
2689 1 4.98871 31.5439 52.9174
5590 1 27.9416 17.2225 50.2572
523 1 28.0148 19.3501 51.0262
7079 1 30.7963 16.5205 48.9913
3351 1 31.4493 19.4607 49.9205
2153 1 32.2028 17.1311 51.2308
5275 1 10.7804 18.146 53.8568
6117 1 35.7185 18.5409 49.6664
1408 1 33.4355 17.4555 49.2916
7108 1 34.2098 17.5155 51.8389
3902 1 10.8013 35.5329 53.4812
7338 1 36.086 21.8583 52.506
3316 1 1.72807 19.7217 49.5973
5088 1 2.10585 21.1684 51.6646
3512 1 0.352697 22.3636 50.4462
7904 1 1.03585 24.3085 51.6204
5796 1 2.77434 23.0497 50.7746
5667 1 29.2545 17.1162 53.8645
7635 1 4.68796 21.7001 51.4172
2377 1 3.60448 20.6544 49.1687
2793 1 6.8923 21.6503 51.6549
1578 1 5.44249 23.2033 53.2795
3995 1 11.6236 20.9683 49.1215
3593 1 9.18607 21.7031 48.9068
1592 1 6.03527 20.2501 53.7585
4920 1 9.26475 23.3313 51.0068
5154 1 9.20056 20.5977 50.8299
2937 1 9.70971 22.0011 53.4355
4705 1 13.6021 21.271 50.3993
2279 1 12.9654 20.5923 52.4859
3404 1 2.04969 16.7246 35.9844
1263 1 13.7791 22.9755 52.3669
1023 1 11.2119 21.9177 51.3099
7965 1 28.4118 35.4915 53.2948
4446 1 10.3361 26.7919 53.1725
5899 1 17.7441 22.7331 50.4964
4776 1 15.9447 21.6143 51.8949
5363 1 20.5104 15.9752 53.7084
5264 1 18.1144 20.5207 51.8056
1806 1 20.5188 23.3672 48.8239
7569 1 18.8494 23.5076 52.8222
7153 1 19.9605 22.0282 50.6753
5793 1 21.9675 22.4254 52.8865
2447 1 23.4882 21.2172 51.4989
4141 1 22.5006 23.2551 49.7185
5107 1 21.5793 34.8251 52.9022
4623 1 21.1158 20.1349 51.6343
3439 1 25.767 20.7188 51.9826
6625 1 24.4819 22.2638 53.3919
4773 1 24.8328 22.6335 50.2904
5737 1 26.1851 23.5664 52.3583
5834 1 29.9001 20.594 51.2185
5890 1 28.82 24.3222 51.8074
5327 1 27.9186 21.8635 51.1485
2854 1 30.978 21.5683 53.0293
6131 1 28.0055 19.4496 53.3371
3832 1 31.3385 23.8605 51.8858
2214 1 30.2055 23.2999 49.7276
62 1 6.05156 13.9372 53.2653
5676 1 33.536 22.1285 52.4558
4146 1 33.8453 19.6887 50.0758
476 1 32.1302 21.4455 50.4
1438 1 34.7152 21.8166 50.5108
7509 1 32.1073 19.4822 52.2512
7506 1 1.76394 26.6434 50.4408
3242 1 35.7139 24.6486 50.3509
1227 1 1.22835 24.4519 49.1528
1967 1 3.44448 27.4045 52.1781
1426 1 1.17515 26.5564 53.0168
6077 1 6.27086 24.9778 48.6929
7821 1 7.54803 25.3858 51.0995
4473 1 5.23494 24.1489 51.055
5316 1 3.78369 25.3672 49.7641
869 1 10.9744 23.6444 49.7071
2302 1 7.33606 23.1306 49.7425
6876 1 7.56656 23.74 52.7614
6472 1 10.2982 24.4635 53.0818
6523 1 9.8988 26.0127 51.1114
6545 1 10.4424 28.0296 50.9999
7829 1 12.0469 26.6894 51.4133
6313 1 13.5665 23.5762 49.7079
950 1 12.2393 24.2847 51.402
5156 1 14.4287 25.3456 51.9505
1568 1 16.7204 29.5132 53.3233
1839 1 17.2398 33.4812 53.5171
4767 1 16.6705 26.0447 50.9396
546 1 16.6079 24.0748 52.1932
2152 1 15.5105 27.0429 53.4753
839 1 19.7056 27.2476 50.3799
4114 1 17.9142 28.1856 51.7331
7646 1 18.6228 24.8997 50.2317
6237 1 19.3628 28.4918 53.4543
1748 1 23.4512 26.0732 52.728
3004 1 19.1785 26.2009 52.5538
5394 1 20.9364 24.5249 51.3729
3012 1 21.3647 27.1254 52.212
3520 1 29.2248 30.799 53.1871
4867 1 32.4529 25.2007 53.798
3016 1 26.5486 27.2969 50.2693
7201 1 34.3384 19.8539 52.4463
6760 1 23.6392 23.8574 51.6931
3088 1 25.6192 25.3962 51.306
2772 1 26.3005 26.084 53.8374
6949 1 27.1751 28.5826 52.9284
1915 1 24.1691 27.3887 50.4815
5099 1 27.8477 26.6452 51.9495
2715 1 29.6911 27.9274 53.4308
1185 1 29.7264 27.5703 50.6208
5919 1 30.7028 25.9266 52.3395
7085 1 12.7068 12.321 53.2219
1238 1 2.99154 25.1719 52.7169
6079 1 33.0561 26.0546 51.6377
688 1 33.373 27.7063 53.2513
3263 1 34.2564 24.2086 52.404
4602 1 33.6398 23.8246 50.1319
3982 1 35.2179 26.6042 52.6237
7091 1 35.5422 27.0248 50.4276
1832 1 3.1144 28.8644 49.9742
2536 1 1.22225 29.1379 51.788
851 1 2.42944 32.5037 51.6563
6923 1 4.28627 33.9574 52.2607
5035 1 -0.499895 31.3804 51.6356
5752 1 0.93978 30.9924 53.5199
5269 1 4.67074 32.3059 50.5557
5092 1 5.04146 27.1696 50.6462
7747 1 15.9612 31.8679 52.4189
2129 1 7.74484 27.9489 50.8172
7982 1 3.9109 28.1902 48.18
3737 1 5.19469 29.9003 49.394
7019 1 5.68392 29.6021 51.7135
947 1 6.47053 33.4048 52.6692
4915 1 8.96429 29.3789 52.5521
6558 1 10.6387 31.2289 52.971
446 1 10.0972 30.4497 50.64
6548 1 7.34798 31.388 52.0439
3967 1 14.3417 30.0296 52.8515
2378 1 13.9771 27.9033 51.3579
6354 1 15.4469 27.6792 49.5032
1511 1 12.1692 28.8974 49.4298
7813 1 12.1254 29.2865 51.9054
694 1 12.7314 31.735 51.9568
2948 1 14.528 32.2115 49.2831
870 1 14.0377 30.2605 50.3471
3186 1 17.2453 14.6886 53.0936
4238 1 16.3748 31.1335 49.9907
6696 1 5.12979 16.0921 53.4782
6053 1 15.9583 29.3526 51.3708
1666 1 18.0932 31.411 53.8051
5900 1 18.7382 30.2669 50.8788
3344 1 19.6881 33.0205 52.9833
3194 1 22.7171 30.5531 53.7018
7344 1 21.4766 28.6849 49.9373
4703 1 20.1208 29.3465 47.9195
6060 1 21.4622 32.0094 51.8814
3255 1 23.1547 28.8564 52.0914
6044 1 20.7761 29.5052 52.0579
7197 1 23.7492 31.6571 50.8104
1573 1 23.5805 29.5973 49.402
2151 1 25.1009 33.4129 49.8957
5084 1 24.9801 30.5358 53.0377
5121 1 26.9274 31.01 51.754
5424 1 11.3582 10.4161 52.2113
631 1 25.3263 29.4951 51.0217
4041 1 29.0563 29.3418 51.5268
5390 1 26.5693 31.2202 49.5622
3336 1 28.9526 31.4939 50.023
1953 1 30.9001 29.6413 49.9177
6610 1 31.6821 28.5204 52.0355
2124 1 34.7699 30.8834 53.5636
4510 1 35.2192 30.181 50.0761
4111 1 29.6613 0.853634 53.4338
2225 1 33.2534 28.3064 50.49
2303 1 0.644364 28.6451 49.6186
5591 1 33.2444 30.6305 51.5961
3804 1 35.515 28.9178 52.1004
4237 1 18.2912 4.42824 52.0876
3240 1 0.537309 33.7621 51.438
1104 1 31.2058 35.9286 52.8535
3419 1 -0.399974 32.4853 49.4434
7038 1 0.926056 35.7929 50.2215
3722 1 35.207 35.307 53.7962
49 1 20.143 4.77364 53.9258
7649 1 3.52627 35.1035 50.0951
1355 1 2.26147 35.2531 52.3944
1518 1 8.5295 9.1717 51.9231
1327 1 8.01289 35.3536 52.5283
796 1 4.83264 36.0047 52.1251
549 1 6.08034 34.4719 50.2111
2768 1 6.96195 34.138 47.8597
6602 1 23.6553 19.9254 53.7459
2460 1 10.7361 32.6094 50.976
2678 1 6.64417 0.344214 50.6394
3600 1 8.36545 33.0769 50.5656
2280 1 5.69687 12.1406 35.9292
5896 1 9.16357 33.2997 52.8223
4874 1 9.99939 35.3313 51.4839
3037 1 6.81635 9.13209 53.9221
6700 1 5.8165 25.7783 52.9394
4759 1 14.3973 33.3872 52.5774
2197 1 12.2092 34.205 51.9146
5003 1 12.8306 33.9968 49.5701
4479 1 12.4022 31.605 49.3273
7021 1 16.6964 -0.121036 51.0804
2465 1 16.0017 33.5946 51.0824
6462 1 18.6709 32.8205 50.8007
7592 1 18.2915 34.8721 51.9648
5349 1 17.6319 34.4983 49.3264
3229 1 15.0942 35.1046 49.5304
5178 1 15.3258 35.5284 52.6717
615 1 22.0339 13.8689 53.2386
370 1 25.5372 7.93255 52.408
7331 1 4.11521 3.66667 51.9141
4398 1 35.5622 5.66735 54.3044
373 1 32.5786 12.0573 53.7175
6080 1 30.5937 10.4711 53.9399
1418 1 10.7177 6.70561 54.1722
6627 1 27.6987 1.82765 54.0494
948 1 18.2159 8.39331 53.8265
5476 1 17.0482 18.982 53.8769
1566 1 9.223 16.0509 53.9915
6849 1 -0.43977 24.5834 53.8902
1273 1 17.5214 36.4234 53.7036
5665 1 7.54487 17.8067 53.9181
6158 1 12.4902 25.2025 53.7874
2762 1 16.2636 12.2116 53.5766
7520 1 19.9984 4.90243 35.9067
1803 1 7.26226 0.0528768 35.5498
1563 1 -0.451951 1.40843 35.6925
4057 1 17.2631 4.17798 35.6475
4465 1 27.4937 12.6298 35.2512
7905 1 14.8232 35.0663 35.9045
2597 1 23.0267 15.3496 35.9801
616 1 25.4612 28.8389 35.848
5799 1 20.2268 19.412 36.047
932 1 24.9139 2.21277 36.0358
3246 1 17.8071 26.7691 35.9405
1402 1 -0.685978 19.853 35.6854
6460 1 0.164129 3.19538 57.9947
3919 1 3.17519 0.393245 56.1108
6383 1 0.97353 2.0432 55.5871
4965 1 32.0539 33.4024 71.1341
5670 1 3.17634 3.63007 58.4685
7496 1 2.24947 1.53193 57.814
3753 1 4.74722 1.38814 58.0509
2230 1 5.69655 0.999967 55.3612
5502 1 3.42076 2.8777 55.7963
5678 1 5.27918 3.60015 57.0772
6142 1 6.78684 -0.0986234 58.1013
2130 1 4.68666 35.8129 56.9769
6350 1 7.0671 1.968 56.9913
479 1 6.14039 35.1324 54.7087
2591 1 30.2911 2.99934 54.2811
6234 1 7.88713 -0.37066 55.6269
2383 1 9.32631 1.19626 56.2996
1498 1 7.48795 2.27465 54.6321
7811 1 10.3063 2.53386 54.7136
6959 1 11.9966 -0.43728 57.8489
3040 1 13.9045 0.3704 56.0958
7653 1 12.2229 2.53256 56.7069
547 1 15.3394 1.91115 56.9274
7490 1 13.6952 2.57132 54.9328
2797 1 5.51091 3.49279 54.0261
3350 1 13.7453 4.96429 54.0974
866 1 17.1628 0.888624 58.1097
3334 1 18.5623 -0.230277 56.299
7993 1 18.9458 2.34123 56.8303
317 1 17.2788 1.23758 55.6826
858 1 18.0236 3.69015 54.8177
5812 1 33.1063 20.3833 54.4263
4053 1 21.5619 1.98767 58.7731
1749 1 22.4715 1.43315 55.6288
376 1 23.0916 3.10848 57.482
7115 1 21.2657 3.57092 55.3451
3895 1 19.9168 1.83604 54.4871
7117 1 21.6998 5.03727 57.8865
7180 1 21.595 28.4921 54.407
1277 1 26.7649 1.25842 57.3983
4613 1 27.696 35.8392 59.169
2687 1 25.7745 3.67008 56.3726
1247 1 25.8476 4.01252 58.6279
5830 1 14.6904 14.1047 54.0085
4617 1 28.2403 1.14981 59.1833
6043 1 28.6147 0.263652 55.5212
3421 1 30.3706 1.37354 58.0248
4067 1 30.5383 0.884017 55.756
1576 1 31.3375 3.14624 56.4655
4374 1 32.4092 35.7359 60.126
3407 1 27.3873 29.9221 54.6124
2066 1 33.2616 1.62004 56.4768
3994 1 35.6893 1.1404 57.0703
4800 1 32.8315 1.12817 58.6388
301 1 35.4038 2.4255 55.3447
787 1 0.890533 -0.405224 56.4264
4073 1 36.4066 4.71412 56.419
3502 1 2.79876 5.27463 54.6733
1118 1 3.8401 7.1505 56.9362
7719 1 17.2034 25.7066 54.5566
3979 1 1.90054 4.47547 56.6259
1261 1 7.47759 4.3154 56.0737
6559 1 4.82742 5.3875 55.5928
229 1 6.76338 6.37695 56.6333
3719 1 5.29241 7.87059 55.4387
5761 1 33.9683 34.0089 69.6703
5153 1 4.80261 6.63422 60.3796
7912 1 0.921489 6.67365 54.8256
3665 1 11.3502 4.57191 55.3808
5762 1 33.6564 35.5795 71.4966
6299 1 8.48795 7.86405 55.6418
7245 1 9.34369 5.92485 56.7652
6719 1 35.9009 35.5799 68.8345
3557 1 9.35951 3.64406 56.8674
5973 1 11.4679 4.11109 58.4406
3162 1 10.9059 7.78431 56.191
5407 1 12.6911 6.76777 55.5837
6793 1 14.9002 6.19594 56.4062
6437 1 13.2776 4.83346 57.1038
5432 1 12.9739 7.34079 58.0708
5511 1 15.2989 5.67151 58.4586
3108 1 16.3948 8.00524 55.215
5586 1 15.3291 4.11374 56.2447
843 1 15.9634 5.59553 54.2882
2639 1 17.2594 5.3401 57.0406
4706 1 19.5732 5.05594 56.4053
2930 1 18.234 7.52789 56.5086
384 1 15.9079 8.13326 57.6274
5015 1 25.9642 32.0775 54.529
5903 1 28.9136 25.9837 53.8097
6934 1 21.7006 6.24747 55.6456
5672 1 23.9251 6.79831 54.169
4720 1 24.7791 3.34297 54.4561
207 1 20.031 7.59548 55.324
6682 1 23.7128 5.4023 55.9659
2285 1 25.6561 6.92743 55.8555
7597 1 24.0296 5.30023 58.5303
6228 1 27.5736 5.19055 55.5167
2233 1 26.8116 5.6162 57.455
927 1 29.6331 5.36799 54.8434
3747 1 28.3334 2.87692 55.868
2849 1 31.2837 3.34533 58.5862
2274 1 28.4253 3.31059 58.4196
5905 1 28.6251 7.5885 56.4617
3496 1 29.7056 4.74882 57.307
303 1 32.9097 7.28097 58.4156
6221 1 32.633 5.16234 57.3633
6292 1 34.1364 6.34648 56.179
1251 1 31.8028 5.54325 55.2841
1174 1 34.4966 3.4137 57.467
7432 1 32.3681 8.02524 54.9639
3506 1 35.8059 6.32974 58.4044
1515 1 24.0248 34.9378 54.0047
1971 1 35.6716 8.06924 56.3742
1722 1 1.55335 11.99 56.9435
6950 1 0.572227 9.76258 56.3237
6367 1 1.21872 7.41974 56.9603
1268 1 2.29674 10.8628 54.6509
6536 1 2.43025 8.35572 55.4207
6475 1 15.0768 24.2961 54.1601
2784 1 4.14985 9.79533 56.308
3811 1 5.37897 10.4748 58.5093
6768 1 6.8918 9.38808 56.4831
4066 1 6.44911 11.6646 56.6993
7727 1 5.82632 11.2632 54.5193
7497 1 8.46092 7.79993 58.1423
5111 1 8.21027 10.739 54.7284
7886 1 11.8799 9.80637 57.5976
2075 1 12.984 16.1222 54.0624
4627 1 9.30151 4.88917 54.4761
7188 1 3.7376 35.1833 54.3594
1242 1 12.3968 9.64151 54.3307
1175 1 13.9378 9.23232 59.3511
1013 1 12.5601 11.5804 56.0329
4455 1 13.8837 8.82969 56.6398
598 1 4.99367 18.3638 54.7247
1824 1 16.707 13.6166 55.4571
4401 1 17.263 10.3307 55.8081
862 1 21.2428 9.58598 58.4489
794 1 26.299 0.0858456 54.2406
7345 1 15.0941 10.876 57.5867
1980 1 18.4307 12.4902 56.6255
7237 1 19.1608 10.7341 54.1774
2226 1 19.2596 9.27526 56.4133
5278 1 23.4626 7.80425 56.265
4693 1 21.4209 9.47712 55.6641
6380 1 21.6923 11.7025 54.5362
1745 1 23.1271 11.3641 57.5195
788 1 20.4928 11.5566 56.9962
625 1 25.295 8.84395 54.526
1757 1 26.0765 11.3345 56.6712
1002 1 26.8358 9.00312 56.3034
3266 1 14.7528 10.8969 55.2299
6788 1 -0.339884 28.9864 54.2628
7598 1 29.6148 7.35448 58.6399
2795 1 26.9187 10.2546 58.5
2879 1 29.1752 9.48541 57.9801
2631 1 31.6527 9.44714 58.6222
4690 1 30.7031 9.87293 56.1217
959 1 19.099 33.4289 69.1178
944 1 -0.140687 9.03187 58.4548
438 1 35.2097 10.2891 55.3932
5585 1 33.6321 8.9149 56.8807
1999 1 31.1982 7.82471 57.1165
7422 1 32.8446 10.9686 55.5543
2562 1 19.4152 35.3894 70.6734
5765 1 35.9495 33.5265 70.7123
4084 1 30.2974 33.9275 69.1932
5912 1 2.23192 13.6261 54.9881
1662 1 0.110226 12.0972 54.9034
4061 1 -0.672186 15.2629 57.9755
7505 1 1.27723 14.6614 56.7654
2078 1 2.76313 12.7944 58.8231
2635 1 35.31 10.9977 57.7142
1984 1 0.164194 14.4355 54.6129
942 1 5.08111 13.1563 58.1955
7425 1 7.13397 13.9563 57.3653
41 1 4.60724 13.0426 55.7415
6283 1 4.60746 15.6466 55.4601
2374 1 2.0469 16.2779 55.0871
551 1 7.52533 13.1718 54.8048
379 1 10.5265 11.0484 54.9962
4290 1 10.0255 13.3264 54.642
7665 1 6.98371 15.3358 55.3314
4626 1 9.44015 14.8728 56.2981
5970 1 8.71254 12.356 56.953
954 1 11.0218 13.1324 57.4341
3581 1 12.3317 13.7106 55.0854
4360 1 11.398 20.433 54.4375
1320 1 14.7476 12.7204 56.3845
1725 1 13.9502 15.4011 56.3049
5360 1 30.1288 35.2669 66.9893
3197 1 26.9083 35.7577 67.9491
4914 1 18.779 15.2506 55.6218
4553 1 16.8821 13.4351 58.3121
1510 1 16.5019 16.0008 55.2412
3361 1 24.5283 33.2522 67.4816
3758 1 20.9349 13.6074 55.659
1736 1 24.3897 35.4034 68.5817
7891 1 23.0934 13.1488 56.1786
1956 1 16.6386 21.008 53.9027
1740 1 19.8218 15.1443 57.9095
7907 1 31.9626 17.7183 53.9609
5106 1 23.9814 10.469 55.5112
3509 1 24.85 12.518 54.6898
5984 1 24.8866 13.1584 57.7754
3193 1 25.3066 15.3243 56.0326
2042 1 24.3733 15.0972 58.3906
6638 1 27.2308 13.4929 55.8389
2474 1 30.7004 16.2548 55.3445
3357 1 30.5837 12.6584 55.1702
5817 1 31.0711 11.9566 57.49
354 1 28.5036 11.5691 56.4878
2541 1 29.4278 13.837 57.1919
3675 1 31.6315 13.6605 59.0718
280 1 29.1467 14.4893 53.8914
538 1 27.4779 7.39241 54.1588
3883 1 32.5279 13.4256 57.0543
5748 1 34.3546 12.6387 55.3789
5739 1 31.4917 15.5252 57.3766
1105 1 34.3553 15.1572 55.8133
4052 1 34.5465 13.403 58.5306
4122 1 3.33859 14.3638 57.2788
685 1 1.03075 16.8888 57.7541
6617 1 2.89438 17.8729 59.0729
3418 1 0.68347 18.1822 54.8635
5507 1 0.990455 19.25 58.8429
611 1 36.1134 13.1327 56.7729
692 1 7.11985 19.6274 55.6728
3023 1 3.49867 17.2187 56.8908
67 1 6.36968 17.4488 56.5255
2473 1 4.46815 19.5231 57.2345
6518 1 5.45559 15.9767 58.013
6306 1 7.32799 18.6149 58.2159
4065 1 4.13667 19.8879 59.4671
5415 1 9.75986 17.5796 58.1926
7594 1 8.87285 17.5538 55.7455
7595 1 11.2062 16.0815 55.4017
3124 1 9.47757 19.5088 54.8372
2558 1 8.00973 16.1297 57.7147
3236 1 14.8928 17.4148 55.1833
634 1 14.9231 19.5577 56.6078
6138 1 12.4729 17.8497 57.6372
7040 1 12.5981 18.3083 55.2476
450 1 11.2208 15.5621 58.5857
5820 1 15.3183 17.5099 57.472
7915 1 23.1569 9.0458 54.1624
359 1 17.6492 15.972 57.6526
3354 1 4.73301 28.8281 53.7204
6390 1 17.2087 18.1182 56.1245
2450 1 19.5648 17.8541 55.078
3362 1 23.0303 35.4688 70.9142
4075 1 15.5153 15.0417 57.9997
2482 1 22.7184 33.529 69.197
1910 1 22.9655 15.2468 54.9462
122 1 23.8121 17.3527 56.8224
7178 1 21.9873 18.0161 55.1302
7116 1 19.3258 19.8793 57.7658
6049 1 22.1909 15.7958 56.9126
6926 1 26.7692 14.9191 57.6915
6709 1 26.1613 17.4801 54.8537
2300 1 25.9875 17.3536 57.795
1898 1 28.1005 15.7004 55.9758
7734 1 25.9124 19.483 56.2701
2035 1 23.541 19.6881 56.078
2443 1 24.2114 19.2309 58.325
3664 1 29.828 15.0357 59.2598
1668 1 27.7644 19.1619 58.2089
7266 1 29.4966 16.8902 57.611
4082 1 26.1863 33.74 68.8692
7758 1 30.0164 19.0164 58.7354
4964 1 31.9188 35.4324 68.8109
4614 1 27.9501 17.1022 59.1297
1272 1 35.4948 20.3845 54.544
4791 1 11.363 28.7615 54.3841
2959 1 32.9061 16.8796 56.3507
705 1 34.8196 18.1655 54.6348
2515 1 35.994 16.7203 56.0482
5475 1 36.2509 18.9474 56.6968
1410 1 2.19848 19.0304 56.4204
5650 1 0.568657 20.8784 56.616
5193 1 2.77766 21.7822 55.9751
3363 1 24.7899 33.8572 70.7533
2759 1 0.397586 21.3054 58.9056
6513 1 20.3846 30.5487 53.9132
2552 1 3.43388 20.091 54.6786
7087 1 5.2515 22.1633 55.51
1486 1 6.57645 20.773 58.5297
775 1 4.51968 21.6587 57.6139
3391 1 7.40871 22.1881 56.9291
6958 1 8.81941 20.249 57.4459
1425 1 10.9646 19.7931 56.8899
4787 1 7.51437 22.1234 54.4031
6530 1 10.0735 22.0185 56.0221
5428 1 9.69222 24.1174 57.5282
2353 1 11.7449 22.6574 58.0317
6780 1 13.4137 23.4057 56.0578
1183 1 15.9536 22.1847 56.5198
2622 1 13.0017 20.9255 56.6753
3604 1 13.5014 19.7106 58.5523
6532 1 17.3619 20.5227 56.4781
1907 1 9.18308 31.9455 54.8861
2467 1 15.9051 23.8069 58.6311
2621 1 19.2741 24.279 55.0271
5117 1 17.2581 23.0039 54.8814
7974 1 18.5451 22.9902 57.2018
5113 1 19.0045 20.2512 55.2062
1432 1 14.2108 22.3131 58.0086
6773 1 21.299 20.0145 53.9957
1659 1 20.0379 22.3016 55.5239
6752 1 22.6861 21.653 55.0271
3962 1 21.1046 19.5925 56.3919
1112 1 23.3165 21.5331 57.4907
4235 1 21.8032 23.8049 55.8146
55 1 6.71023 5.87745 54.1793
4306 1 23.7707 24.344 54.2437
5524 1 24.903 21.8857 55.9187
5837 1 26.2815 21.0448 58.1205
2142 1 26.3616 23.3179 56.8756
7970 1 24.1584 24.1803 56.4816
5041 1 30.6309 35.4039 70.8041
1990 1 26.3907 23.5723 54.4075
2853 1 31.3394 18.5296 56.7702
3746 1 28.5493 21.2119 58.457
4770 1 27.6858 21.6322 56.0971
4716 1 30.4103 19.3294 54.48
483 1 28.6531 23.5468 58.469
6220 1 29.806 20.3184 56.6166
5039 1 28.3492 24.2129 55.9146
7083 1 34.9508 21.2191 56.7553
473 1 15.5977 33.7743 69.0447
1507 1 32.4897 21.695 56.8448
4163 1 28.6416 33.8751 70.6464
3102 1 34.1535 22.403 54.7811
4701 1 31.9943 20.2523 58.6618
5204 1 3.01021 23.9598 56.8908
1579 1 1.63259 24.9425 54.7923
4448 1 34.634 24.3664 55.7811
3556 1 0.0435536 22.6919 55.2169
5169 1 28.194 18.4444 55.9356
3256 1 2.41662 26.3329 56.8094
5314 1 0.258287 25.0888 56.8693
6597 1 3.92836 26.5757 54.4666
6681 1 3.87219 24.1737 54.7949
434 1 29.9391 7.55036 54.3988
6072 1 6.37871 24.4781 55.1421
4628 1 6.41281 27.2019 55.1456
1764 1 17.473 35.4136 68.8227
5807 1 7.7786 27.8994 57.4784
2563 1 20.9609 33.5358 70.7972
7096 1 8.76277 23.8927 55.074
934 1 8.30268 25.7947 56.3855
4079 1 10.7557 26.3689 55.3659
3425 1 9.04965 28.6952 54.8788
1763 1 17.3113 33.7736 70.6355
3482 1 12.6347 27.5578 55.6168
1420 1 11.1557 23.922 55.3917
623 1 12.117 25.4129 57.3645
2641 1 14.285 26.1803 55.4805
5410 1 13.8138 27.7509 57.6712
1845 1 15.3098 35.8189 70.3406
7395 1 16.2804 24.5828 56.481
71 1 18.4219 25.3643 57.1233
1836 1 14.3885 24.9972 57.5171
6792 1 17.4362 28.1188 55.1367
1039 1 20.4692 24.6274 57.959
1992 1 20.2957 22.8369 59.3184
5964 1 19.5602 26.696 55.3203
3359 1 21.7885 26.1773 55.4154
7121 1 21.0757 27.2217 57.6481
1345 1 24.4827 28.7109 54.4792
1513 1 22.9027 25.7247 57.4149
7424 1 23.9949 26.3221 55.5964
5971 1 26.4522 25.5127 55.9235
5180 1 26.4074 27.7407 55.5415
4140 1 26.6044 25.018 58.4115
3741 1 28.4289 27.804 55.6215
2390 1 31.0047 21.6904 55.133
1917 1 28.6605 26.0394 57.1674
4469 1 30.4658 25.3149 55.4218
1195 1 30.5024 22.8833 56.9274
564 1 31.3064 26.7505 57.0822
2396 1 29.6219 28.468 57.6062
6398 1 32.2872 23.7825 55.5338
707 1 32.7756 24.0033 57.642
3106 1 33.4041 26.4657 56.6282
4317 1 35.7299 26.7549 57.6044
4683 1 1.40129 29.958 56.0901
1762 1 13.31 35.7306 68.3897
6206 1 0.906496 27.2958 55.4469
5025 1 1.75546 28.8789 58.2033
7997 1 3.22782 30.795 54.361
217 1 3.83237 27.4004 58.8484
3518 1 35.2633 26.4722 55.1057
5032 1 0.24691 31.6873 57.8727
6391 1 28.7731 35.7674 69.2578
5797 1 3.16793 28.4041 56.2102
4712 1 5.60768 28.9181 56.8104
7553 1 5.08578 26.3744 57.0835
6450 1 3.79457 30.2013 58.1025
5353 1 33.404 4.1418 55.6121
3597 1 15.4268 0.581053 53.9824
4304 1 6.34801 30.1345 58.8174
5005 1 10.355 28.1542 57.0609
3112 1 7.91461 30.4165 56.18
2154 1 10.6178 30.6453 56.2441
4145 1 15.0493 28.4125 55.4897
4162 1 26.5279 35.7173 70.7769
5735 1 12.4504 29.7156 56.5633
6964 1 14.8451 31.2877 56.0381
1726 1 16.3971 31.2228 58
1670 1 18.7507 13.5105 54.1564
2388 1 20.1469 28.9753 55.9443
2232 1 17.2633 30.3267 55.8571
5245 1 16.1583 26.8639 56.6328
7102 1 18.422 27.6352 57.1408
2313 1 19.5919 31.2627 55.797
5572 1 18.8485 32.1145 57.924
5712 1 23.1371 28.4762 56.8586
3715 1 22.5336 30.4902 55.8363
2234 1 21.0141 30.6294 58.1229
5681 1 23.6574 31.8626 57.8887
2360 1 21.6482 32.5577 54.298
5825 1 27.4224 29.9534 57.0101
601 1 25.2612 30.1329 56.0329
6937 1 24.9665 29.3896 58.4474
3250 1 27.1831 27.8384 58.0409
5176 1 25.9604 31.6876 57.8913
5963 1 28.4975 31.7922 55.6876
1908 1 31.5119 27.6888 54.616
5994 1 29.9298 29.5828 55.3683
7749 1 27.2281 29.3023 60.0475
5982 1 30.3142 30.69 57.3733
6386 1 31.147 31.8541 55.6413
3345 1 29.9894 33.2658 57.0794
5878 1 34.0505 28.6272 55.4234
1588 1 32.208 29.2038 56.9472
153 1 35.9038 31.3014 55.9365
1021 1 -0.513649 28.7769 56.7867
5513 1 33.5421 31.4063 55.5206
5333 1 34.5118 30.298 57.6589
1919 1 3.26949 32.2789 57.4429
686 1 1.51796 32.1769 55.9929
214 1 2.59594 34.4836 56.601
4876 1 1.00523 35.0378 54.5946
5260 1 -0.237925 33.6593 56.1947
4696 1 4.45634 32.8219 55.0834
963 1 13.6639 34.2396 70.4132
7090 1 7.00505 32.9591 54.9841
7971 1 5.65624 33.6499 57.1242
2239 1 5.50968 31.3422 57.0236
3034 1 8.27604 34.1537 56.9232
2756 1 7.01589 32.2278 58.4549
1640 1 8.98313 34.739 54.7363
595 1 9.97303 35.9445 57.063
4958 1 9.45845 32.6057 58.2758
877 1 11.5718 0.649489 55.6271
2076 1 11.6268 34.6993 55.4996
7193 1 16.3458 35.4164 55.6935
1191 1 13.9001 33.1782 58.475
3588 1 12.6818 32.5627 56.1425
931 1 13.8237 34.6538 56.578
1098 1 11.3051 33.9226 58.0541
3179 1 14.9559 33.6254 54.7797
4935 1 15.1672 -0.474028 57.9288
5231 1 19.5979 33.5597 55.2885
5658 1 17.0371 32.5352 55.8143
4312 1 16.031 33.7299 57.915
7277 1 18.1864 34.2974 57.1869
387 1 14.6564 22.0171 54.2389
4794 1 19.9872 35.8252 54.5202
1977 1 17.4991 35.2454 59.3419
2228 1 21.4921 32.5769 56.7532
4125 1 24.0408 35.8863 56.1207
7026 1 21.9384 0.170757 54.0345
4598 1 20.6676 0.479727 56.5971
7018 1 22.8926 34.1245 57.7786
305 1 22.2858 34.6363 55.2859
957 1 21.7726 35.3121 59.5703
2462 1 23.739 32.5736 55.4551
1884 1 27.7305 33.4208 57.4897
3632 1 26.843 35.7391 56.6629
4957 1 25.6738 33.4874 56.5504
3437 1 24.9489 1.24782 55.6651
5833 1 25.0801 36.0709 58.3741
2610 1 26.3528 33.733 59.4159
4679 1 30.6742 35.3826 54.9695
1751 1 26.5482 34.4811 54.2744
300 1 32.6477 33.8623 56.4507
5239 1 29.3564 35.3953 57.3681
7361 1 31.5321 -0.518955 57.2706
1911 1 32.0695 31.9656 58.0318
1503 1 28.5747 34.5233 55.3091
3521 1 21.4855 35.301 68.7757
3742 1 33.0555 -0.197245 55.0855
2077 1 34.4819 33.5595 55.2023
5038 1 35.3613 35.6531 56.0587
5031 1 3.49223 1.57229 59.8886
6522 1 0.249655 0.0304545 58.7821
484 1 1.69836 -0.249507 61.1378
784 1 1.24234 4.8152 58.9944
2929 1 1.11051 2.25439 60.1438
2931 1 0.124628 2.77803 62.8113
6550 1 6.56999 2.05325 59.7039
48 1 4.89639 -0.0633727 59.8352
3679 1 2.59921 2.80725 62.2551
4540 1 7.01352 -0.152407 60.6196
621 1 7.83483 1.55327 61.5822
7270 1 4.05089 0.877986 62.0173
232 1 6.41181 0.848902 63.4763
6561 1 5.42645 2.78324 62.3987
6363 1 11.0489 1.60541 58.5198
7666 1 8.86811 0.201213 59.2713
2477 1 10.3481 0.9477 60.9325
1356 1 11.2285 -0.329449 62.8653
4939 1 10.5569 3.12862 61.5018
3830 1 10.543 35.5266 59.4195
5517 1 9.57784 1.19165 63.7971
7011 1 13.6316 1.33398 58.3294
1343 1 13.6298 1.57313 62.51
620 1 15.6059 2.28078 60.6677
7113 1 12.6039 0.367896 60.5504
936 1 15.2889 -0.208725 60.1165
3993 1 15.089 4.13817 63.1256
2951 1 15.6356 0.605509 62.5933
4349 1 19.2715 0.876284 58.4837
3909 1 17.2242 3.26976 58.1682
1120 1 17.5116 0.78353 60.6033
7596 1 18.904 0.348346 62.2465
2309 1 19.3205 2.67756 60.851
4684 1 17.3867 2.79233 62.4789
2866 1 24.3457 1.77795 58.5969
1894 1 20.5664 0.540878 60.2783
6525 1 19.8113 2.66139 63.4079
6396 1 21.7948 2.16472 61.4499
5421 1 22.8237 3.41397 59.9717
1186 1 22.4258 35.9789 61.6219
4560 1 23.3318 0.712087 60.3008
2681 1 26.0417 0.759734 59.8523
5034 1 26.3899 0.982845 62.0431
3998 1 28.368 0.18379 61.4921
6955 1 24.9332 2.72983 60.9694
191 1 27.9997 2.51024 62.9703
7819 1 30.2129 -0.907966 59.9448
1988 1 31.5705 1.37053 60.4266
3976 1 30.8593 0.161622 62.0612
4691 1 31.7823 3.32585 61.4012
4923 1 30.8273 34.3761 61.4267
2458 1 -0.364407 0.867503 61.2014
5201 1 34.6455 -0.31821 59.5832
3744 1 35.2821 1.93711 59.0369
5961 1 34.798 2.73446 61.2255
2549 1 33.4489 0.652446 61.4386
2216 1 0.813966 6.63367 60.1549
7524 1 2.88429 4.70661 60.6425
5831 1 0.783831 4.79873 61.6948
3270 1 2.86975 6.99153 58.859
5190 1 4.77711 5.74994 58.225
6954 1 0.865483 8.11647 62.3952
3494 1 2.62984 6.76776 61.5566
1593 1 7.22062 3.85623 58.5704
4953 1 7.03248 6.08041 59.4272
2700 1 5.0987 3.8735 59.8428
2299 1 8.59462 8.83377 62.4591
1107 1 7.19839 6.96483 62.1135
4068 1 4.61046 6.29686 63.9305
1517 1 6.96879 3.83072 60.9873
3033 1 5.03889 5.20844 62.156
6693 1 9.23058 5.30754 59.0536
1482 1 9.21264 2.86626 59.4737
2625 1 8.91188 5.13048 61.7778
5077 1 11.0708 5.26598 60.7932
7984 1 10.745 7.91189 61.7158
1275 1 10.754 7.28793 58.8033
3724 1 14.6331 3.39976 58.5874
884 1 13.241 5.26735 59.5759
7583 1 13.8161 5.91118 62.4616
4301 1 12.5347 2.89686 60.1105
5642 1 12.7435 7.75904 63.5365
6552 1 12.8983 7.2561 60.893
5727 1 15.2001 5.04193 60.9764
1334 1 19.6859 3.75233 58.8833
2800 1 17.3362 6.20308 59.2523
1082 1 16.598 6.29692 62.1829
1494 1 18.8598 4.76433 61.7326
6924 1 17.3562 4.1875 60.1797
2079 1 23.6757 4.67557 61.8552
3014 1 21.0278 4.23104 61.2354
3893 1 22.6754 7.82168 62.0619
5200 1 20.9882 7.5518 57.4035
5760 1 22.5865 5.77004 60.0485
2235 1 20.5625 6.413 62.2182
6946 1 20.376 4.78183 63.8956
1434 1 25.4664 5.31685 60.4527
3913 1 24.6072 6.49973 62.7816
3917 1 27.3006 3.26953 60.6287
3889 1 25.6037 7.32692 58.4055
4069 1 25.9491 3.89953 62.6445
3264 1 27.7588 5.77085 59.617
2713 1 29.3909 2.2976 60.7317
1102 1 27.7954 5.19809 62.1465
2470 1 31.2932 5.49312 59.2814
5189 1 29.5039 4.42434 60.5637
2956 1 31.4773 5.6825 61.719
1808 1 29.8993 4.54269 62.9629
1739 1 28.591 7.08306 63.1914
1514 1 33.451 3.75287 59.7491
3978 1 35.9387 4.3274 59.7898
4463 1 35.5749 6.65413 62.2176
3733 1 33.8343 5.99078 60.0355
2607 1 33.8557 4.65647 62.1119
3764 1 1.09504 11.0319 59.0073
719 1 2.74075 9.70729 57.9823
1587 1 3.04594 9.91101 62.0499
1834 1 1.47296 9.11747 60.2718
2927 1 0.692081 11.2051 61.5034
2203 1 5.64025 8.06712 58.3589
7679 1 7.7568 10.4257 58.3634
2936 1 4.02863 8.75465 59.878
5908 1 3.61762 11.0818 60.1098
5645 1 5.89388 10.1022 61.6529
3891 1 5.09294 7.95564 62.2778
5345 1 4.13706 12.2449 62.1634
2864 1 6.97666 8.45677 60.2762
4134 1 8.90536 7.1605 60.6241
3070 1 7.99165 10.8535 61.1226
2671 1 9.32094 9.69107 56.741
1893 1 9.25099 9.39487 60.0788
5747 1 9.85609 12.2897 60.9546
292 1 10.2665 10.2937 62.0599
2480 1 11.5377 9.44637 59.7366
6868 1 15.3514 7.26127 60.0751
5575 1 12.7172 9.30685 61.9789
4950 1 16.109 9.32166 60.2795
3195 1 14.8796 8.12043 61.9038
2999 1 14.606 10.5714 61.6795
6291 1 18.6239 8.27735 58.6526
1761 1 17.5335 10.6898 58.2837
534 1 20.2019 6.52411 59.6383
4060 1 18.5434 9.96483 60.278
5587 1 17.0642 10.3746 61.9901
65 1 18.1936 7.99509 61.7617
3254 1 20.7703 8.68839 60.5426
1920 1 22.875 9.98605 60.7047
3188 1 24.3575 10.9889 62.2456
3749 1 22.8509 7.96843 58.8388
5018 1 21.0642 11.5398 59.3897
922 1 21.1616 10.211 62.1449
3905 1 24.7753 9.30754 57.7251
5114 1 26.8294 7.20901 61.577
1243 1 24.5725 7.58517 60.42
2366 1 25.9661 9.4525 60.5635
5518 1 24.6463 10.9488 59.4376
543 1 26.5185 11.8416 62.4194
3992 1 30.7673 7.81598 62.3704
720 1 29.3942 6.78625 60.8213
3672 1 27.74 8.2801 59.6512
2461 1 27.9252 9.17524 62.1981
4523 1 31.914 9.78708 61.9781
3920 1 30.0088 9.4805 60.5609
2844 1 33.4729 9.19003 59.9196
5331 1 31.6711 7.53855 60.181
7908 1 35.6942 7.82112 60.2498
2146 1 35.3646 9.68715 61.8048
6198 1 33.6105 8.00925 61.9935
6560 1 0.534896 13.6214 59.2004
6135 1 2.24979 12.773 60.9183
7341 1 4.20793 14.9806 59.5659
539 1 1.82454 15.5357 59.2829
6215 1 0.985375 15.2257 61.8229
4884 1 7.38166 12.3432 59.5546
6917 1 4.98848 14.8384 61.83
6526 1 5.55262 12.7907 60.4313
2704 1 7.36649 15.6395 61.7911
7901 1 6.54404 14.7862 59.8247
143 1 6.47187 12.819 62.382
2794 1 10.0118 11.1655 58.5632
4225 1 9.04099 14.3307 59.3289
3030 1 8.44727 13.9004 61.433
7601 1 12.3165 11.5181 60.8182
1035 1 9.49612 15.9031 62.9117
4480 1 11.8146 13.8357 60.0116
7828 1 8.62763 11.8263 63.2507
5493 1 12.8492 11.6405 58.3572
1869 1 13.89 13.4737 58.571
7634 1 13.1885 13.3623 61.9629
557 1 11.9123 15.9214 61.9202
6279 1 16.0945 14.1733 62.7537
1896 1 15.9371 14.5649 60.5615
6302 1 17.5956 16.1604 62.0247
3098 1 19.0655 12.5888 58.7724
7120 1 15.2921 11.8234 59.7348
6217 1 18.543 14.4249 60.3295
394 1 17.3914 12.5461 60.8637
1361 1 19.4244 14.298 62.5001
6479 1 19.6768 11.6932 61.6117
6471 1 21.4318 13.6209 58.2685
3410 1 22.1875 12.3532 61.9934
3085 1 20.8276 13.9517 60.4804
4929 1 23.2588 12.6257 60.0524
2718 1 21.7566 15.0147 62.3402
1650 1 27.5185 12.609 58.1824
3103 1 24.4213 13.4378 62.0875
2311 1 26.1176 12.89 60.3048
5991 1 26.1679 14.8964 62.1426
78 1 27.7938 10.7896 60.811
3006 1 29.2451 11.4737 58.901
6465 1 29.8237 11.0733 62.0143
2045 1 31.6945 11.4449 60.2707
152 1 28.3136 13.7198 62.0577
2724 1 29.4803 13.1034 60.26
4447 1 29.9274 15.631 62.0825
4868 1 31.2477 13.7874 61.8203
5026 1 32.0375 16.0202 60.3257
3971 1 33.328 11.3845 58.3393
478 1 35.5542 10.9972 59.831
1916 1 33.8112 11.8511 61.3755
4853 1 35.7115 13.4873 61.2063
6629 1 33.3675 14.0536 60.6608
1101 1 34.0988 15.2781 62.6092
3837 1 2.02728 19.7152 60.8449
2141 1 1.4396 17.3818 61.1825
3190 1 36.3001 18.7242 61.1119
7041 1 3.24882 16.6697 61.2419
6310 1 2.14672 18.9018 63.5734
1089 1 5.59174 17.0448 61.727
385 1 5.42174 18.0132 59.2896
5594 1 6.97614 19.3146 60.6784
2062 1 4.24562 19.0942 61.7997
3589 1 7.79362 17.8933 62.7481
6474 1 11.8971 17.6646 59.9354
1963 1 7.87607 16.8457 60.0265
5993 1 9.59993 18.319 60.8291
5411 1 9.98317 15.7865 60.6183
2389 1 8.58186 20.259 62.5764
2301 1 11.2272 20.4505 59.1339
1161 1 12.7342 18.6348 61.6917
532 1 13.7582 15.7165 59.48
2136 1 14.9744 16.3063 61.6352
1888 1 14.5294 18.1409 60.1667
767 1 19.6615 17.1407 57.4864
2763 1 18.692 16.8362 59.8059
123 1 16.2449 16.4998 59.3814
2710 1 19.1277 18.7053 61.7022
5433 1 15.8885 16.7712 63.8469
4148 1 20.2621 18.4534 59.4814
6956 1 21.6272 15.8874 59.4237
4076 1 22.4811 17.3878 61.4161
7657 1 21.3588 20.0185 62.0191
5279 1 20.2693 16.8887 61.6194
5577 1 23.9094 17.1614 59.2367
4637 1 21.9698 17.8753 58.0285
531 1 25.9269 18.3288 59.9586
6713 1 23.5348 14.9753 60.6316
7911 1 24.6223 17.1541 62.286
4042 1 26.218 18.9107 62.2425
444 1 25.7613 16.0339 60.3459
6798 1 24.1992 19.2767 60.7765
6953 1 27.4844 14.6846 59.9421
1816 1 27.7796 17.1433 61.784
3584 1 32.423 17.684 58.612
3438 1 29.822 18.7743 62.4994
5740 1 28.5204 19.2206 60.4854
3924 1 29.8399 17.2798 60.6372
3840 1 31.876 16.723 62.6849
5358 1 32.0054 18.6849 60.52
1583 1 35.5311 15.5989 60.4385
5027 1 33.6082 15.6412 58.4697
1113 1 35.8725 17.0261 62.633
1591 1 34.0359 17.5228 60.8422
4839 1 35.3327 17.682 58.7979
211 1 33.9156 19.1187 56.9061
1812 1 35.1759 20.9355 61.3746
5194 1 1.64424 21.0167 63.3879
3355 1 2.49075 20.6556 57.8287
315 1 35.9145 23.0606 60.0561
1754 1 0.570287 21.5834 61.4509
3916 1 2.74782 21.8437 60.0488
7352 1 1.30168 23.8497 61.5288
3097 1 7.28576 22.9103 59.0776
7326 1 5.49445 21.1225 61.0493
5884 1 3.54704 21.9109 62.1029
5444 1 6.17789 20.5294 63.3309
2789 1 8.48285 22.4598 61.8913
5413 1 4.75456 22.7683 59.4621
2058 1 8.65763 20.7229 60.0007
3327 1 9.53683 22.2582 58.4755
2394 1 10.7316 22.5793 60.5619
872 1 10.9941 20.3658 61.6044
1163 1 10.2539 24.2814 62.1434
3985 1 14.9721 20.2358 61.3376
76 1 15.8046 20.4568 58.9372
2858 1 13.1348 21.4417 60.3313
7503 1 16.6286 22.7545 60.5969
5751 1 14.8168 22.8947 62.2544
6850 1 12.4579 23.453 62.084
456 1 16.3999 18.3797 61.1174
4200 1 17.3693 18.6841 58.6964
5589 1 17.5356 20.6721 61.0914
5916 1 17.7691 21.6943 58.6846
7815 1 19.6638 20.7548 59.8921
3755 1 17.4691 24.1635 62.4202
4160 1 22.0814 19.9833 58.9381
3200 1 21.3284 22.4691 61.5652
1585 1 20.9843 22.0844 57.3689
1230 1 22.4484 23.3421 58.6635
3275 1 23.1343 21.5668 60.3821
5810 1 24.3737 20.7332 62.555
393 1 26.7093 21.8682 62.4644
466 1 26.1803 20.7272 60.6509
5588 1 24.3104 23.5221 62.1606
2950 1 24.8542 22.819 59.4024
1178 1 28.0923 22.2724 60.353
4468 1 28.396 20.474 62.6117
7012 1 31.6107 20.4452 62.8514
6468 1 30.3251 20.6176 60.6307
4046 1 31.1653 22.5236 59.2711
4240 1 30.1049 22.205 62.6913
1276 1 34.2432 19.4782 59.3196
6884 1 32.6916 21.4198 61.0718
2717 1 -0.327978 22.8957 57.2864
2231 1 33.7189 22.2643 58.9769
3670 1 34.0432 21.0775 63.3222
213 1 1.65342 23.4452 59.069
6720 1 1.17866 26.4303 61.627
3432 1 1.92283 25.9157 59.4655
945 1 3.4242 28.2204 62.6747
6634 1 35.8636 25.0924 61.6622
6463 1 -0.545148 28.2305 61.521
2293 1 7.06088 25.7786 58.3983
45 1 3.36597 23.8963 61.0022
4293 1 5.81931 25.1159 60.596
2604 1 5.67532 24.0429 57.1673
958 1 3.99903 24.8161 58.6297
3483 1 4.09263 26.6915 61.4381
4043 1 9.65638 26.5463 58.5714
6376 1 8.76284 24.8877 60.1393
7028 1 9.86399 26.6509 61.3827
1998 1 11.1102 24.9281 59.7853
3104 1 7.57335 27.3912 61.369
4837 1 12.1289 26.8384 59.276
4689 1 13.4217 23.8105 59.6725
960 1 14.2117 26.1267 59.5192
5512 1 12.8132 25.7917 61.4929
790 1 14.8864 26.8778 62.1948
7897 1 16.9295 25.9081 58.901
7195 1 15.4133 24.7114 60.6437
4466 1 18.3828 24.1645 59.5162
2043 1 18.0957 26.1817 61.0206
3806 1 20.472 24.6741 61.2808
1828 1 18.2028 27.9843 59.5097
1974 1 22.0524 25.9316 59.6141
4300 1 22.6689 23.9302 60.8218
7343 1 22.2746 27.1618 61.7207
1184 1 19.7263 26.2738 59.2759
1421 1 20.0879 27.3812 61.5517
2691 1 22.1386 24.4955 63.2646
5494 1 28.0378 24.2038 62.0561
1364 1 24.223 24.847 59.1983
4441 1 25.0075 27.0603 57.7384
4000 1 25.9792 24.3471 60.5791
6317 1 24.2967 26.038 61.2222
2712 1 26.1146 26.9212 60.184
1738 1 27.76 26.1072 64.1577
3507 1 28.4796 25.4971 59.8408
139 1 29.494 26.0765 62.838
7514 1 30.7314 25.0009 58.5153
240 1 28.9762 27.5255 59.6757
6621 1 30.0052 23.3879 60.6888
6939 1 34.8607 24.6337 58.3268
7099 1 31.5003 24.6985 62.4105
5569 1 32.4931 24.3197 60.113
6484 1 34.0175 23.3494 61.7354
7167 1 30.6575 26.0365 60.6435
4624 1 33.0602 26.0203 58.9738
7276 1 34.9102 26.4825 60.2334
158 1 2.17946 29.1646 60.7204
2385 1 0.679106 30.1851 62.3446
395 1 0.189452 27.3784 59.3036
6197 1 3.15853 31.0388 61.4565
2357 1 2.10485 31.3829 59.3276
474 1 -0.0142165 30.2302 59.8165
7510 1 6.03827 27.5553 59.414
1667 1 4.5149 29.1384 60.399
6705 1 6.11834 31.1431 61.3896
693 1 5.83738 28.8472 62.6221
7014 1 11.8743 31.7904 58.5594
7740 1 7.84215 30.3017 60.2218
7801 1 9.03959 28.1471 59.6409
1906 1 11.2737 28.2925 61.1806
1673 1 11.8372 28.9507 58.7306
5036 1 11.559 30.0309 62.6998
5992 1 9.28204 29.0414 61.9888
6139 1 10.5617 30.4485 60.4335
2547 1 9.06174 31.2737 62.4279
6856 1 13.8363 28.5735 60.2845
5350 1 12.9322 28.0874 62.597
840 1 14.3871 30.3661 58.0264
717 1 12.8751 30.6228 60.457
1909 1 14.9534 31.5181 60.3864
6879 1 15.37 29.5433 62.3625
2719 1 15.2939 33.6799 63.0463
7027 1 16.2565 28.7253 58.1871
471 1 15.9732 27.5264 60.0742
2387 1 17.5532 30.1788 60.6044
5654 1 18.4307 29.8849 58.1688
6858 1 19.1522 29.8946 62.017
43 1 23.0368 30.695 59.6515
3433 1 20.9886 28.7361 59.5885
7501 1 20.9991 31.8594 61.9454
3750 1 22.1578 29.7094 61.7905
3888 1 23.9583 31.692 62.1018
5085 1 25.6075 30.5575 60.5806
4928 1 23.6769 27.8137 59.5944
2636 1 24.6942 28.3376 61.6385
60 1 28.1642 27.8165 61.9048
1838 1 22.4048 28.1272 64.0025
4629 1 26.5447 26.0859 62.5567
7906 1 30.5032 28.0534 61.6757
7483 1 29.209 29.9122 62.1694
4390 1 29.5389 29.8122 59.5255
7987 1 31.3294 30.14 61.5603
2633 1 32.3469 29.9428 59.4429
797 1 31.1232 27.7575 59.3004
2438 1 34.5417 29.8817 61.4172
1825 1 33.872 28.2117 58.3287
2629 1 32.9549 27.807 60.8758
1267 1 35.637 31.8371 62.1812
237 1 34.4608 31.4888 59.7632
7961 1 3.56548 35.4625 61.3296
4963 1 -0.105502 34.9655 60.4246
3836 1 1.46954 34.0125 58.6919
1154 1 2.36723 33.4339 60.9166
6644 1 4.01626 33.9253 59.262
6551 1 2.74185 36.324 58.4496
6073 1 4.7169 31.771 59.6014
5339 1 7.8166 32.8666 60.496
4307 1 6.01496 34.3964 59.7361
7678 1 4.74705 33.2655 61.5242
154 1 6.7755 34.9385 61.957
1802 1 9.26238 30.3043 58.3366
3003 1 10.3572 32.9183 60.3009
5909 1 9.03843 35.9059 61.4454
140 1 8.53118 34.5534 59.142
3189 1 9.1457 33.8003 62.3837
5479 1 11.2996 32.2643 62.129
938 1 11.5111 34.759 61.5879
3963 1 13.3748 35.1667 59.3605
632 1 13.0832 33.1093 60.4674
3426 1 15.1975 33.9427 60.3892
4472 1 13.8641 35.2725 61.9934
4458 1 17.066 31.3102 62.5618
2484 1 17.0251 32.5235 60.0121
1913 1 19.4358 31.4397 60.119
5013 1 19.835 33.7834 59.3768
6951 1 20.6705 34.8312 57.3169
2943 1 19.8736 35.0818 61.1478
800 1 17.1286 34.9732 61.9647
1903 1 19.1234 35.306 63.6784
5651 1 22.5361 -0.016327 57.9126
5743 1 24.5599 32.5899 59.8763
7566 1 21.9524 32.7338 59.68
859 1 18.3539 33.0789 61.8432
2623 1 23.2505 33.7348 62.1831
7034 1 24.3532 36.2385 62.3575
316 1 24.0443 34.9399 59.9852
2481 1 26.7379 35.1297 63.8476
3324 1 26.4094 35.5168 61.1037
6449 1 25.9006 33.0932 61.7667
3276 1 28.1177 31.6479 59.0154
1581 1 30.5915 32.3147 60.0708
1958 1 28.3694 34.0999 61.7383
1732 1 27.6445 31.7337 61.4303
1271 1 28.8498 33.9359 59.3548
1520 1 31.5315 34.087 58.663
3652 1 29.623 32.5266 62.5417
369 1 33.8157 35.5135 57.5021
3519 1 34.4557 32.7608 57.5199
1818 1 36.0686 34.6779 58.2435
4381 1 32.7424 31.9655 60.8803
2072 1 34.7048 35.4582 61.5414
6470 1 -0.0895843 32.5295 60.1474
6637 1 33.6657 33.9978 59.3941
6392 1 -0.0953609 35.9913 62.7779
3751 1 1.56565 0.872207 63.4254
7190 1 0.281002 -0.163148 65.208
159 1 1.47362 1.87904 65.7018
4127 1 4.20912 2.03744 64.2278
4944 1 2.35085 3.68127 64.5623
1817 1 2.34966 0.992081 67.6496
7348 1 7.76344 2.84585 63.5997
1436 1 6.22495 2.80408 65.2414
1096 1 8.08092 2.9719 67.2376
1344 1 7.83571 0.908761 65.6119
6160 1 9.98391 2.74969 65.5249
879 1 11.5133 0.408773 65.2874
4133 1 11.5645 2.67096 67.5717
2709 1 11.6794 2.15242 63.9469
1041 1 9.6199 1.20498 67.5415
7023 1 13.6873 2.06116 64.9949
5346 1 14.9043 2.68692 67.0844
7880 1 15.4554 0.602778 65.5337
964 1 13.358 1.00501 66.8973
7992 1 15.8657 2.58452 64.7489
6153 1 18.2593 2.75371 65.2516
2051 1 17.5626 0.701177 64.0276
3039 1 19.2374 0.893743 65.5509
2315 1 16.8149 3.85604 66.8638
205 1 19.0321 2.29203 67.6447
1193 1 17.5319 0.597143 67.2964
3109 1 22.4667 3.45946 63.6366
388 1 21.07 0.417917 63.6396
3743 1 20.4893 2.63486 65.7425
6870 1 22.1816 1.23693 65.4421
6556 1 22.5338 2.68632 67.2178
1924 1 23.5903 1.49067 63.1842
4318 1 20.9305 0.374808 67.4036
6446 1 20.6737 4.11284 67.625
2553 1 26.1043 2.72398 64.8358
6452 1 28.6079 0.353494 63.8255
2870 1 26.7123 0.94867 66.2514
3280 1 24.1014 3.10031 65.4719
47 1 24.3752 0.830339 67.001
3440 1 25.7478 3.02382 67.0466
3196 1 28.3407 2.41476 65.4525
5844 1 30.474 0.232602 64.9892
6075 1 30.3758 2.49875 67.2524
1741 1 31.7387 0.579973 67.1331
4946 1 30.3919 2.35952 63.2644
4952 1 32.5033 0.891116 63.5342
3411 1 31.9421 2.47529 65.3359
2707 1 35.2215 0.914496 63.8605
2057 1 35.6616 2.70322 65.7313
560 1 33.9254 3.12576 63.6757
762 1 33.3962 0.397405 65.6224
5272 1 35.7236 0.685434 67.2245
1831 1 33.9741 2.65747 67.2761
7558 1 0.937859 6.23302 63.8704
7764 1 0.541141 4.76109 65.8433
5911 1 2.64648 6.35591 65.3865
4139 1 2.71421 5.40223 63.0766
533 1 4.27223 4.18969 65.3241
5019 1 6.68827 5.02997 63.5893
311 1 4.61224 7.89439 65.5963
550 1 8.79437 6.37361 63.8873
6783 1 6.23469 6.16863 65.52
7334 1 5.93997 4.33943 67.105
1348 1 10.1849 8.14845 64.3046
481 1 12.1331 4.01883 65.1172
472 1 10.0529 4.17209 63.7928
540 1 8.40222 4.73632 65.589
1833 1 10.3473 6.40222 65.7373
244 1 11.2497 5.98369 63.1114
1201 1 10.3212 4.41321 67.0854
1281 1 11.8008 6.01066 67.8048
1997 1 12.8178 3.78762 62.2345
138 1 15.0612 4.58986 65.2796
5420 1 13.256 6.04272 65.182
2393 1 15.3924 6.50467 64.0286
278 1 15.3356 8.09528 65.9593
5170 1 13.4068 4.48654 67.1197
6933 1 18.5944 6.35977 63.9239
7035 1 17.197 4.67433 64.2452
5995 1 19.0044 4.73474 66.3088
6947 1 17.238 6.49886 65.8303
2564 1 19.2717 6.36812 67.3585
4548 1 20.5456 7.08582 65.4086
1905 1 22.2834 5.91081 63.3747
6848 1 21.933 4.50028 65.6491
3592 1 21.7697 6.27449 67.56
2877 1 26.0051 6.83015 64.264
144 1 24.3128 5.09649 64.3295
5888 1 23.6872 6.42526 66.1048
5822 1 25.8804 5.31463 66.0442
7278 1 28.2843 6.37956 65.74
4622 1 24.1871 4.62696 67.4753
7967 1 27.6934 4.49377 64.2914
5086 1 30.4184 6.6447 64.4236
2788 1 31.9835 4.38792 63.795
1117 1 30.0912 4.17907 65.4189
3599 1 32.143 6.36024 65.6061
2069 1 32.1252 4.03094 67.0843
3403 1 30.2237 5.79652 67.072
6606 1 33.991 4.22424 65.4696
548 1 35.9014 4.59423 63.6841
7827 1 35.5821 6.5074 65.7084
1914 1 33.8454 6.32144 63.7966
1840 1 35.4423 4.5201 67.5344
6880 1 33.6913 6.08664 67.1824
7172 1 2.90339 8.04699 63.7158
5498 1 0.933613 9.84852 63.7299
75 1 0.675592 8.19498 65.4331
7729 1 2.92104 9.60884 65.5847
6697 1 2.72077 11.485 64.0198
1353 1 0.753887 11.2879 65.7196
856 1 6.66859 7.78204 63.9851
1255 1 5.14179 10.0139 64.0242
7518 1 6.49839 9.78447 66.0545
619 1 4.37927 11.5728 66.1075
553 1 6.67759 12.0101 64.8737
1996 1 6.21214 11.7939 67.4282
1029 1 4.56321 9.58679 67.6858
164 1 12.0518 8.03573 65.9629
5355 1 8.26946 9.93053 64.5984
4522 1 10.393 9.87168 65.9355
4765 1 8.25332 7.76439 65.7812
6063 1 11.7905 9.88788 67.7887
4625 1 11.4248 9.93026 64.0034
5814 1 13.3334 10.1326 65.7044
7816 1 14.597 9.22027 63.9852
7745 1 15.5346 10.4154 67.2311
1124 1 13.6041 8.22502 67.7419
5335 1 12.9677 11.6252 63.348
3582 1 14.3322 12.1997 65.9128
7991 1 16.7468 8.30883 63.4833
1552 1 18.7553 8.42143 65.5571
4389 1 18.6575 10.2088 63.5838
2801 1 18.6055 10.3679 67.2529
4779 1 16.7814 9.88261 65.3253
2084 1 16.963 12.1733 67.4542
3267 1 17.2237 8.18423 67.3884
2878 1 20.7052 8.58456 63.6386
4080 1 22.3012 10.3123 64.0226
3904 1 20.7195 10.307 65.6832
2395 1 22.3722 8.49255 66.1999
871 1 22.6498 10.0677 67.756
3594 1 22.7338 11.6637 65.8081
1417 1 20.7922 11.5495 67.8016
1004 1 20.3991 8.93297 67.5401
2296 1 23.5909 8.0536 64.2455
2367 1 24.7017 9.716 65.8251
4956 1 25.4963 9.03451 63.1765
1109 1 26.0751 7.86407 66.1889
6078 1 26.4201 9.91658 68.0634
5655 1 26.5383 11.5672 65.9349
5754 1 24.0505 8.14158 67.909
3681 1 24.7734 11.4658 67.9101
4959 1 32.1714 8.10277 67.3452
6564 1 27.4911 8.68301 64.3907
7044 1 28.1343 9.70991 66.3228
57 1 29.9065 9.73096 63.9969
5166 1 29.9929 8.19046 65.9871
230 1 32.0259 8.49373 64.3307
2210 1 31.8851 10.1684 65.7287
5920 1 27.9908 7.73727 67.7232
7032 1 30.1374 10.0449 67.5718
3653 1 35.5704 8.19894 63.9062
3987 1 33.5778 10.3009 63.5798
299 1 33.7913 8.38159 65.7367
7983 1 35.5441 9.75927 65.9525
5898 1 33.5284 10.0335 67.6672
3177 1 33.991 11.6546 65.7692
5118 1 2.34495 11.7233 67.2888
7258 1 1.175 12.9909 62.9717
2548 1 2.29868 13.2726 65.0722
4151 1 0.567487 15.1356 65.4093
1569 1 2.4564 14.7307 63.3802
1815 1 4.74588 13.3922 64.078
7515 1 4.19642 15.1355 65.5842
2312 1 6.2226 15.7955 64.0379
1091 1 6.18953 14.0644 65.8452
6881 1 4.13978 13.7387 67.3836
5100 1 5.99035 15.1545 67.6416
5823 1 8.70971 11.6059 66.0155
2471 1 10.2594 16.1762 65.4019
776 1 8.3875 15.0796 66.305
1165 1 9.94904 13.6591 65.2434
4781 1 7.93356 14.2045 63.9955
5338 1 11.8434 11.9974 65.4426
7755 1 10.9086 12.2073 63.1918
867 1 8.14986 13.4088 68.0276
4869 1 12.6495 15.5912 65.3171
7030 1 14.1064 13.7131 64.3056
4445 1 15.369 11.5304 63.7547
6863 1 11.7669 14.5164 63.6803
3839 1 15.1274 15.1762 65.7691
6159 1 13.5553 15.5591 67.8526
5819 1 17.7106 12.5044 63.0805
6639 1 14.9883 13.5948 67.6631
6296 1 18.4376 12.0178 65.4978
6467 1 20.6623 12.1386 63.6802
3038 1 16.5266 13.4073 65.6085
4532 1 19.2304 14.9749 66.0075
6058 1 17.7103 15.0616 64.0379
3684 1 19.2517 13.5751 67.7426
3029 1 22.8293 13.6565 64.1413
7512 1 21.0227 13.3832 65.8228
3284 1 22.2978 15.2061 65.8223
3091 1 20.517 15.4444 64.2384
1435 1 22.7268 13.1564 67.6326
2773 1 21.0231 15.2224 67.8504
5901 1 28.0219 11.2906 64.1764
5202 1 27.875 12.1171 67.7634
5253 1 24.6441 11.9085 64.371
926 1 24.0995 13.8703 65.9774
1985 1 26.425 13.3281 63.9156
1279 1 26.4678 15.0802 65.4316
4564 1 26.1179 13.6162 67.3729
6307 1 24.4674 15.2941 63.834
4858 1 28.3626 13.5755 65.6403
6786 1 30.0532 11.7342 65.7879
5894 1 31.4513 11.5635 63.5858
1899 1 31.7781 11.7577 67.5177
1416 1 28.1031 15.4804 63.8072
5343 1 30.1366 13.5023 63.9148
1342 1 31.9934 13.034 65.6599
6942 1 29.9177 15.3154 65.791
2227 1 32.0833 14.9823 67.411
2068 1 30.1219 13.6755 67.4307
1335 1 31.9698 14.9686 64.6252
4636 1 27.7698 15.1389 67.5995
6238 1 35.9509 11.6079 63.6376
7357 1 33.7792 12.8952 63.8612
2222 1 36.0992 13.2267 65.3844
4784 1 34.302 14.5679 65.782
5203 1 33.7185 13.1618 67.8148
1594 1 35.7493 15.1018 67.954
1570 1 35.9001 14.0455 63.4292
1437 1 35.8972 11.5697 67.3112
6316 1 1.11206 16.5803 63.9085
6877 1 2.30472 16.8865 65.9331
6164 1 0.422499 17.05 68.0922
5277 1 0.644771 19.1478 65.7939
1637 1 3.70194 16.802 63.6693
7604 1 6.4758 16.9797 66.2785
3337 1 5.78783 18.2308 63.9874
307 1 3.78161 18.8137 65.5552
5673 1 4.32065 17.1454 67.9467
5503 1 8.09045 16.9858 64.7152
7757 1 9.21693 17.2933 67.1562
4386 1 7.62616 19.0057 65.3447
5435 1 10.7469 18.6397 65.7937
7118 1 10.1488 18.9077 63.5674
7574 1 9.85086 19.4533 67.6354
3587 1 10.3463 15.0302 67.7135
4156 1 12.0757 20.1192 64.3555
2229 1 11.7461 17.3245 64.1089
6867 1 14.2964 18.9275 63.5186
7895 1 14.0297 17.4666 65.4684
3174 1 14.0188 16.021 63.4515
1521 1 16.0482 18.7935 65.5491
6305 1 13.4203 18.9784 67.5186
235 1 15.2078 17.3451 67.5735
5675 1 18.6272 17.268 63.8887
3041 1 17.0139 16.482 65.8042
7995 1 18.9453 18.7475 65.7316
2884 1 18.817 16.8782 67.7464
2533 1 17.2017 18.7999 67.4918
2161 1 17.0488 19.1051 63.4482
3245 1 20.5307 17.2344 66.0996
4513 1 22.7162 18.4653 65.8183
3435 1 22.595 16.6285 64.2895
4536 1 20.8441 18.2837 63.635
6375 1 22.5832 17.1868 67.8774
7743 1 20.7938 18.8328 67.5592
1982 1 23.8197 18.8585 63.7172
935 1 24.5592 16.536 66.0671
5423 1 26.263 16.9373 63.9011
5582 1 25.8515 18.517 65.3218
2961 1 24.3521 18.6318 67.7476
629 1 27.81 17.0318 65.8339
6147 1 28.1595 18.5567 64.3331
6710 1 27.8565 18.8829 67.4631
2880 1 29.9368 16.9824 63.9035
5979 1 31.8846 17.1417 66.2657
3911 1 29.9137 18.5074 66.0076
5258 1 30.0654 16.3085 67.9744
6319 1 31.7942 19.1289 67.3809
4932 1 36.0923 17.0461 65.4288
3915 1 31.8722 18.729 64.4997
59 1 33.6383 18.8943 62.621
4396 1 33.7189 16.8025 64.6772
3427 1 34.3245 19.3152 65.1236
7972 1 33.9326 16.4352 67.3599
4718 1 35.344 18.5907 67.3848
1512 1 2.50059 23.3246 63.3471
765 1 -0.362965 19.4851 63.2835
5736 1 35.7311 22.8836 63.0889
1338 1 2.48581 21.1119 65.8458
7333 1 0.941252 22.7338 64.8758
383 1 0.681689 20.8538 67.3892
3646 1 2.21041 19.0831 67.7656
6628 1 5.98148 22.7434 62.8153
7507 1 4.00527 20.7117 64.0248
7267 1 5.582 20.6029 65.9548
7809 1 4.82142 23.0192 64.9546
6706 1 7.10485 21.9441 64.8211
5680 1 6.32565 22.9576 67.1687
5999 1 10.567 22.3741 63.3585
5033 1 8.93121 23.5503 64.2416
7433 1 9.27026 20.8697 65.1101
477 1 7.88554 20.6675 67.0478
7272 1 9.47565 22.2712 67.3069
7981 1 13.0745 21.1406 62.7195
7516 1 7.42837 24.5598 62.2646
4686 1 11.9376 20.5824 67.1248
1100 1 11.4386 22.4525 65.5581
4714 1 15.4209 21.216 63.6452
7791 1 14.3351 20.347 65.3221
4707 1 13.3756 22.6953 64.2685
3908 1 15.677 20.5686 67.0947
2472 1 13.5734 22.2302 66.9644
555 1 15.4733 22.8719 65.2228
5495 1 19.327 20.1148 63.958
6287 1 17.2865 20.9937 65.4232
2067 1 19.2019 22.5066 65.6262
5838 1 18.133 22.0566 63.4218
2611 1 17.028 22.5436 67.1763
3094 1 18.7501 20.4423 67.4926
2539 1 19.1754 22.6572 61.3051
7587 1 20.73 22.2254 63.9335
7825 1 21.7891 20.2478 64.208
319 1 20.8525 20.7374 66.3621
1108 1 23.0031 22.6389 66.2355
3921 1 22.5287 20.52 67.8399
951 1 21.0386 22.6109 67.7088
1187 1 23.3442 22.5471 63.8902
367 1 24.4179 20.719 65.5232
5102 1 26.2221 20.2851 63.9609
687 1 26.1883 22.5193 65.7899
4150 1 24.8303 22.6293 67.3552
3274 1 27.6964 20.8329 65.7808
2881 1 26.4335 20.7502 67.6074
2220 1 28.0662 22.4801 64.3439
3571 1 29.8621 20.4085 64.4351
3903 1 30.549 22.6414 65.3266
3105 1 32.3495 20.9324 65.3459
3835 1 30.2379 20.8743 67.1796
6000 1 32.0319 22.823 67.1386
7916 1 32.2839 22.6539 63.293
3093 1 33.9847 24.3357 63.921
50 1 34.2781 22.6846 65.5028
2791 1 36.0827 20.9175 65.1556
7107 1 34.1824 20.5351 67.3133
54 1 35.8818 22.661 67.1893
6362 1 0.566578 24.7672 63.5839
5977 1 2.74458 26.2037 63.5461
7838 1 2.68316 24.2942 65.4402
7427 1 0.97558 26.2151 65.5424
4136 1 1.12739 27.98 63.9843
6630 1 3.12972 27.9435 65.5066
2451 1 6.34906 26.4388 63.2644
6151 1 4.54465 24.8464 62.7527
880 1 4.76574 26.0679 65.1524
5573 1 6.61844 24.4606 64.8976
3165 1 8.89313 25.7347 63.6417
7684 1 11.1637 25.0304 64.1895
1669 1 9.08247 25.844 65.8317
552 1 7.91437 24.6452 67.5207
1358 1 9.81715 26.2591 67.9824
6557 1 11.3504 26.7389 65.8922
4074 1 10.8985 24.1074 67.3602
3271 1 7.83435 27.8877 67.8014
714 1 10.737 27.6859 63.6586
6936 1 15.2793 24.5674 63.5099
7353 1 13.3051 26.0179 63.6338
1660 1 15.0389 26.3103 65.8139
6724 1 13.1385 24.2353 66.0714
2783 1 13.1304 26.4427 67.5592
1116 1 15.8683 27.9641 64.1121
3436 1 19.16 24.4389 63.7229
1103 1 17.1554 24.2362 65.1429
4217 1 17.3061 26.1734 63.7862
3918 1 19.2081 25.7489 65.8657
1347 1 19.0397 28.2507 63.6742
3277 1 19.1431 24.0395 67.5573
2634 1 17.2905 25.746 67.3032
7591 1 18.9197 27.6384 67.6183
6127 1 21.3049 24.0057 65.3729
6155 1 20.6504 26.3573 63.8572
4316 1 22.7826 26.3882 65.3398
4119 1 25.9585 24.0825 63.6423
7350 1 24.2407 24.4237 65.1919
4804 1 25.9933 26.2655 65.7726
7962 1 24.3498 26.1643 63.5335
3663 1 24.1078 26.5031 67.3046
6379 1 26.3123 24.5195 67.155
6140 1 27.971 24.4081 65.615
7492 1 28.2567 28.0548 65.7153
1114 1 26.0377 28.0511 67.1688
5486 1 29.7809 24.2257 64.0694
3279 1 29.8246 26.3403 65.5428
4319 1 29.7854 28.0596 64.0427
4872 1 30.0192 24.2778 67.0187
3119 1 31.388 26.5991 63.6499
2785 1 31.9954 24.7401 65.1595
1755 1 32.0814 26.1057 67.0381
6784 1 32.0321 28.0825 65.6635
638 1 33.3698 25.8717 62.0807
708 1 35.6527 26.6727 63.4065
2871 1 36.1338 24.4687 65.5463
7909 1 33.6521 26.5135 65.101
1680 1 35.5137 28.0715 65.4987
6701 1 1.01151 30.0314 65.1719
4640 1 0.943611 31.573 67.0479
7571 1 3.16801 29.8188 64.1424
3002 1 0.936713 32.1754 63.6379
1106 1 2.87916 31.9463 65.5211
2796 1 5.82858 28.6648 64.9032
5826 1 7.04918 26.8337 65.6345
2282 1 4.88413 30.6064 65.7927
6842 1 6.9576 30.7256 63.5124
713 1 4.67731 31.6555 63.1831
6199 1 6.41191 32.4789 65.571
697 1 7.99405 28.3539 63.784
6453 1 9.44052 28.2635 65.871
4760 1 8.03862 29.9483 65.6401
2637 1 9.96403 29.981 64.2853
53 1 9.6752 29.8853 67.7169
7100 1 11.6503 29.4821 65.7014
4873 1 9.4934 31.7629 65.8143
804 1 11.4845 28.1756 67.6316
2381 1 13.6327 27.8611 65.4701
6941 1 15.2754 29.4349 65.6073
1440 1 13.663 29.7143 67.3887
4291 1 15.296 28.034 67.5067
5985 1 13.7004 31.5216 62.6731
1427 1 11.6251 31.5848 67.5594
1240 1 17.347 29.8371 64.0565
7990 1 17.6996 27.8467 65.673
7264 1 17.1776 28.1618 62.0659
1024 1 19.125 29.9267 65.9365
4879 1 17.2995 29.7942 67.4042
1676 1 20.5797 28.088 65.553
1744 1 19.2625 31.7799 67.4183
4635 1 17.1748 31.6964 65.644
2404 1 20.7188 30.1253 63.9888
4477 1 22.3295 30.0813 65.7997
3364 1 20.9038 31.6849 65.9135
4054 1 22.7414 31.7503 67.3431
2559 1 20.7947 29.726 67.5549
2464 1 22.5561 31.8897 63.817
7517 1 22.1439 28.064 67.5862
7355 1 24.1617 28.6236 65.6462
7415 1 25.9173 28.2084 63.9595
3510 1 26.5665 30.1623 65.9508
4083 1 24.4753 30.2414 67.4326
3745 1 24.7193 31.612 65.6238
5661 1 23.8104 29.7077 63.525
5664 1 28.3175 30.0227 64.3538
1111 1 28.0379 29.8799 67.5671
3833 1 28.1504 31.8877 66.0138
3353 1 29.9923 30.0676 66.1554
1444 1 30.0706 32.4305 67.2317
4149 1 31.8087 29.106 63.3702
7818 1 32.0122 31.5576 65.8151
3598 1 30.7678 30.8899 64.0518
2001 1 32.238 30.0289 67.5267
1501 1 33.8053 28.3583 63.3351
3021 1 33.8171 30.2233 65.798
2437 1 35.73 29.7765 63.8202
2952 1 35.588 31.8657 65.6788
4926 1 33.3128 30.9688 63.3505
1254 1 2.13652 35.1741 63.5431
2872 1 3.05977 33.3655 63.2673
4288 1 2.8121 -0.124475 65.6455
5829 1 0.987509 34.0373 65.5188
4393 1 0.420902 33.7007 62.2655
5976 1 0.93756 35.7903 67.1657
238 1 5.10643 0.326335 65.5758
5580 1 6.76142 35.0212 65.3177
622 1 4.77196 35.3385 63.1915
3910 1 4.12089 34.0646 65.2756
4940 1 6.78402 33.088 63.4226
6478 1 11.0168 34.3751 64.0778
2074 1 11.1196 32.2495 64.3619
3199 1 8.5606 33.55 64.8462
7358 1 8.6286 36.09 63.7252
3017 1 9.78823 35.8578 65.5904
470 1 11.6458 33.8925 66.3299
7022 1 13.5964 -0.076623 63.7358
6004 1 13.127 31.5149 65.4439
2947 1 15.5011 35.4266 64.2491
7284 1 13.6676 35.4989 65.7923
1651 1 12.9804 33.7337 64.2144
1027 1 15.253 33.4435 65.8969
5109 1 15.6201 35.4386 67.1667
2148 1 13.7586 33.4625 67.6503
5806 1 15.3237 31.5551 64.2083
7807 1 19.1551 31.849 64.2085
3429 1 17.6392 35.4036 65.6477
6704 1 17.2616 33.6563 64.2
3192 1 19.237 33.5795 65.4042
4462 1 17.1056 33.3107 67.3276
2638 1 19.1222 35.2084 67.2426
3172 1 21.1116 34.0889 63.5631
5183 1 20.8528 35.4174 65.3005
5439 1 22.8856 35.8198 64.1509
703 1 22.8085 33.5352 65.6219
3183 1 22.5818 35.4064 66.7578
2554 1 21.1173 33.5671 67.3177
556 1 25.1113 0.507547 64.605
5323 1 25.3779 35.3307 65.9071
4161 1 24.7961 33.0329 63.8462
837 1 26.0281 30.5682 63.0849
7586 1 26.4604 33.4618 65.9178
1409 1 29.4933 35.0318 63.6047
7999 1 28.328 33.9354 67.6867
4702 1 27.3276 32.6401 63.8148
5592 1 28.1737 35.1993 65.6322
6132 1 30.1155 33.269 65.2194
7748 1 31.7031 33.102 63.572
3760 1 32.0057 33.7132 67.1482
4534 1 31.7861 35.2107 65.311
4865 1 33.722 33.5706 62.1201
5431 1 35.8483 34.2836 64.0795
3326 1 33.3787 35.4607 63.4291
3100 1 33.7789 33.3797 65.1726
3278 1 33.804 35.3509 67.3285
3096 1 36.074 33.8467 67.1028
3831 1 0.586693 2.57421 67.5011
6643 1 2.56074 0.778796 70.6679
6642 1 0.586269 2.33209 70.9878
7599 1 0.607421 0.86921 69.1635
715 1 2.57277 2.79538 69.0693
219 1 6.09061 1.10177 67.3186
1430 1 4.26998 2.25613 67.1384
7441 1 4.46195 2.83386 70.891
241 1 4.45731 0.69125 69.1473
7442 1 6.11674 0.591073 70.8092
1115 1 6.08698 2.65695 69.3271
4871 1 7.82431 0.595052 69.2024
242 1 8.10867 2.13377 70.9352
243 1 9.82684 0.641433 71.0169
7356 1 9.85986 2.66682 69.4439
1042 1 11.7571 2.4599 71.0763
7360 1 11.554 0.839178 69.2908
1043 1 13.5541 0.674222 70.9245
1842 1 15.4706 2.2165 70.7783
1044 1 13.4813 2.29342 69.1375
1841 1 15.0953 0.706925 68.3389
1843 1 17.3009 0.469811 70.3512
2642 1 19.4687 0.464334 69.265
2716 1 16.9852 2.65601 68.8358
2648 1 19.1016 2.13669 70.7281
2643 1 20.8205 0.629659 71.2364
2550 1 21.1351 2.26297 68.9522
1562 1 22.7575 0.413049 69.2584
3442 1 22.9618 2.18622 70.8674
2644 1 24.4554 2.45401 68.9662
3443 1 24.6015 0.292146 71.2751
4241 1 26.048 0.640021 68.7366
4242 1 26.0235 2.19278 71.1191
4244 1 28.587 2.87821 68.6756
4313 1 28.7012 0.732379 67.3989
4248 1 28.5065 0.810467 70.6719
1994 1 30.2926 0.736257 69.4619
5042 1 30.4702 2.51578 71.0264
5044 1 32.296 2.24283 68.9326
5043 1 32.1124 0.868063 71.0194
5841 1 33.7616 0.216587 69.3244
5842 1 33.8523 2.42865 70.7118
5843 1 35.773 0.701373 70.9787
5921 1 35.6673 2.46342 69.3301
6801 1 0.477777 6.62969 67.3162
4236 1 2.59318 3.9268 67.0212
6723 1 2.33291 4.16602 70.8341
6722 1 2.6645 6.34216 68.869
6961 1 0.80425 4.59455 69.0754
5274 1 0.832901 6.32389 70.6534
398 1 4.24425 5.95026 67.2181
2708 1 4.47639 5.77644 70.7299
7521 1 4.45987 4.33102 68.7551
7523 1 6.26119 4.12908 71.6001
7522 1 6.33082 5.9968 69.0477
876 1 8.30864 6.10988 67.4695
321 1 8.06357 4.38077 69.1272
322 1 8.01252 5.64574 70.8969
323 1 9.98406 4.11688 71.4968
324 1 9.88291 6.02942 69.3813
1121 1 11.7823 4.28925 69.5657
1122 1 11.8452 5.88695 71.3799
4230 1 14.9051 6.34054 67.168
1973 1 13.4175 6.09256 69.333
1123 1 13.729 4.07815 70.9426
1922 1 15.5012 5.76581 70.9708
1921 1 15.2144 4.4111 69.0334
1923 1 17.2288 4.0947 70.9865
2799 1 17.1288 6.04954 68.8106
320 1 18.8672 4.28329 69.3968
2722 1 18.9415 6.09938 71.0182
3658 1 20.6459 3.82784 71.0452
3522 1 22.4642 6.31367 71.5853
3441 1 22.394 4.23628 69.2908
2281 1 20.7297 5.95945 69.587
4232 1 26.052 5.90876 68.0791
4687 1 27.886 4.24084 66.5742
4397 1 23.7437 6.16826 69.5195
3523 1 24.4528 4.11205 70.779
3444 1 26.4837 4.027 69.3956
4322 1 26.3429 5.85345 70.9732
2238 1 28.4546 5.61686 69.3336
4323 1 28.5775 3.73277 71.0174
5271 1 30.673 4.03088 69.0796
5122 1 29.8319 5.77428 71.0575
7359 1 31.9087 6.03679 68.7352
5123 1 32.0383 4.57707 70.9571
5922 1 33.85 6.11748 71.1149
6239 1 33.5301 4.37432 69.3168
5923 1 35.7344 4.43785 70.6913
7189 1 35.4958 6.20132 69.0779
234 1 2.56875 7.88086 67.3237
5197 1 0.995654 9.74932 67.6698
6728 1 2.39172 8.06515 71.0205
6721 1 2.80544 9.80261 69.255
3514 1 0.512106 8.26307 69.3479
6802 1 0.708185 9.83322 71.0519
3430 1 6.42485 7.83387 67.3639
6803 1 4.43165 7.93368 69.4476
7602 1 4.93984 10.3081 70.5394
7603 1 6.42517 7.87736 70.794
6804 1 6.4542 9.70694 69.0445
5562 1 8.4626 10.0633 67.6094
5196 1 10.1353 7.91333 67.8811
6212 1 8.02094 8.07216 69.4628
401 1 7.9894 9.9267 71.0709
403 1 9.73928 7.80964 71.5438
7033 1 9.82379 9.63152 69.6068
1036 1 11.6611 8.09012 69.6426
1202 1 11.9049 9.85754 71.2148
1203 1 13.9759 7.75237 71.0509
1204 1 13.5098 9.72038 69.5078
2002 1 15.2687 9.51612 71.3102
2003 1 15.6822 8.0702 69.1012
6872 1 18.8127 7.86227 69.2154
2004 1 16.9424 10.1211 69.2761
2802 1 17.2398 8.18746 71.1068
3408 1 18.8487 10.184 71.4502
2083 1 17.2825 11.8879 71.1203
5438 1 20.3959 10.1408 69.5789
2803 1 20.2687 7.99457 70.8444
2958 1 22.47 7.99713 69.5378
3601 1 22.6518 9.69556 71.0306
2883 1 20.9648 11.7369 71.2559
1270 1 24.5908 9.84232 69.6984
3603 1 24.1438 7.98316 71.2382
4402 1 26.0875 9.89533 71.342
4324 1 25.9947 7.82229 69.4302
4403 1 28.0345 7.8121 70.6031
5598 1 28.3424 9.79262 69.2929
5281 1 29.9022 9.62709 71.2855
5128 1 30.2407 7.8441 68.8141
2370 1 31.7927 9.78019 69.4638
6144 1 29.606 11.8521 69.5457
5208 1 31.5992 7.42077 70.8198
4483 1 28.1824 11.1476 71.3568
4615 1 35.2011 8.1264 67.5043
561 1 35.4045 7.8977 70.9401
7109 1 33.7221 7.88437 69.3063
6878 1 33.8342 9.4809 70.9112
5924 1 35.623 10.052 69.3192
6553 1 2.51611 15.4923 67.5574
6865 1 0.749745 13.4036 67.535
6883 1 3.08065 11.4128 70.8135
7681 1 0.806427 11.8253 69.3736
6163 1 2.50019 13.4343 69.1963
6882 1 0.723996 13.4006 71.3159
6963 1 2.43285 15.5489 71.1814
4878 1 0.731151 15.2315 69.7245
7683 1 6.20258 12.0515 71.4318
1194 1 4.287 11.747 68.6979
7682 1 4.04526 13.3387 71.156
6547 1 6.00849 13.4366 69.5818
7763 1 6.14466 15.3326 71.1957
236 1 4.08849 15.5135 69.2926
449 1 10.4467 11.9847 67.5317
7643 1 8.42367 11.7671 69.446
1282 1 11.7792 11.5119 69.4962
4631 1 10.3565 11.251 71.1294
7493 1 8.16747 13.7595 70.8319
404 1 10.0383 13.666 69.5318
482 1 9.92539 15.8915 70.8475
6957 1 11.526 13.4722 71.2721
710 1 11.9754 15.663 69.6241
402 1 7.94058 15.6425 69.2348
1758 1 13.2777 11.5122 67.7879
2071 1 12.4503 13.6156 67.1146
1283 1 13.3468 11.9422 71.3671
2081 1 15.0903 11.7975 69.3555
2082 1 15.3004 13.4677 71.244
1433 1 13.0425 13.6722 69.4361
1363 1 13.6661 15.0952 71.4212
2888 1 15.3629 15.1777 69.2635
939 1 17.0847 14.8918 67.3972
7111 1 18.8503 11.8002 69.334
2164 1 17.2653 13.4848 69.3365
2963 1 19.1257 13.6282 71.2273
2882 1 16.8139 15.471 70.8952
2964 1 18.8655 15.2587 69.2231
5677 1 22.7583 11.7816 69.6528
3761 1 20.6257 13.3645 69.7552
3682 1 22.5692 13.7421 71.2716
3762 1 20.7444 15.2147 71.4973
1734 1 22.4638 15.3943 69.7649
3683 1 24.2477 11.7163 71.4057
5198 1 26.3736 11.5128 70.0341
3678 1 24.6747 13.6685 69.5219
4482 1 25.7902 13.8267 71.5433
2310 1 26.1571 15.4162 69.5458
1599 1 24.2203 15.2413 67.9919
4563 1 28.1808 15.5555 71.5447
3763 1 24.2402 15.355 71.3971
5283 1 31.4803 11.5276 71.3534
2946 1 27.8457 13.2872 69.9344
5282 1 29.7296 13.4979 71.5969
5284 1 31.5081 13.4101 69.8198
5362 1 29.6437 14.7514 69.5382
6161 1 31.9324 15.3493 70.8093
6081 1 33.3272 11.4843 69.7799
6083 1 35.4732 11.5952 71.081
6082 1 33.6864 13.6849 71.2468
6084 1 35.7101 13.2767 69.2486
4638 1 33.5564 15.2649 69.4059
6162 1 35.5642 15.6361 71.0631
7037 1 2.44606 17.1319 69.5769
6962 1 0.405281 17.2226 71.1757
7047 1 2.50348 18.8096 71.3638
1516 1 0.653584 19.0946 69.3463
1679 1 5.8312 18.8876 67.3549
7841 1 4.23804 19.1101 69.6327
7762 1 4.54204 17.2363 71.1465
6529 1 6.41265 17.4413 69.1752
7843 1 6.28019 19.3874 70.7465
7994 1 11.6734 17.0225 67.3882
562 1 8.20541 17.7024 71.0277
725 1 8.13556 18.9914 68.8331
2721 1 10.3281 17.4427 69.3114
644 1 9.83771 19.1323 71.0528
1362 1 11.6643 17.711 71.1119
2158 1 11.8735 19.3824 69.2376
7418 1 13.533 17.3887 69.1486
1443 1 15.0708 17.2006 70.8962
1505 1 15.3953 19.0469 69.2617
1368 1 13.5775 19.0409 70.7444
2163 1 17.152 17.0376 69.1718
2962 1 18.8339 17.0094 71.0002
2243 1 16.7804 18.9298 71.0377
2162 1 19.253 18.7791 69.3673
221 1 20.8511 17.0276 69.5168
3043 1 22.7279 17.3522 71.5716
6311 1 22.5507 18.6942 69.8169
3044 1 20.9125 19.0389 71.1523
2160 1 26.1348 17.0135 67.6835
1354 1 24.5455 17.0984 69.7092
3843 1 24.4893 18.8806 71.028
4562 1 26.6698 17.3888 71.1881
7204 1 26.4492 19.1658 69.5228
5364 1 28.1663 17.0536 69.3365
4643 1 28.6717 18.6939 71.154
5357 1 30.2501 16.8499 71.1439
2720 1 29.9515 18.7963 68.7961
314 1 32.1395 17.3579 69.1423
5443 1 31.735 19.1252 70.8372
5351 1 33.7676 17.2765 71.2769
7494 1 35.3262 17.091 69.3384
6241 1 33.7678 19.1163 69.1231
6243 1 35.4221 18.9811 71.0906
4948 1 2.63884 22.6587 67.7274
7914 1 2.58286 20.9339 69.6625
7123 1 2.29281 22.7359 70.9852
7042 1 0.643157 20.5619 71.1843
5441 1 0.638771 22.2397 69.1834
2240 1 3.9136 20.629 67.7073
7043 1 4.0999 20.5431 71.4564
7921 1 4.34639 22.4912 69.4346
7502 1 6.19067 20.9288 68.7044
721 1 6.21244 22.1699 71.0209
724 1 6.25122 24.1715 69.2699
2873 1 7.97118 22.5151 69.2149
1448 1 8.05618 20.9254 71.551
723 1 9.52006 22.8114 71.1697
7039 1 9.58024 20.9201 69.6024
1442 1 11.8016 21.4553 70.587
1439 1 11.6244 22.3042 68.5742
718 1 13.6656 20.8954 69.0625
2242 1 15.4979 21.0971 70.8514
1674 1 15.3952 22.4759 68.9523
1523 1 13.4986 22.6945 70.7757
1959 1 17.173 20.6485 69.3842
2323 1 17.2418 22.3546 71.2226
3042 1 18.9276 20.5254 70.8982
6554 1 19.1969 22.4193 69.3875
3123 1 20.627 22.5628 71.2184
4789 1 20.8107 20.633 69.2611
3842 1 22.7672 20.8205 70.9059
3201 1 23.0662 22.3186 69.0477
3923 1 24.6517 22.9675 70.7071
3118 1 24.7049 20.6964 69.499
4721 1 26.3129 21.073 70.9747
2469 1 26.8316 22.6912 69.2709
1015 1 28.4518 22.5186 67.0749
77 1 28.6107 21.0664 69.1111
4723 1 28.3846 22.8443 71.0147
5442 1 29.7779 20.841 71.0734
4233 1 30.2797 22.7872 69.1117
1269 1 31.759 20.929 68.8915
5522 1 31.9187 22.6707 71.2208
6242 1 33.668 20.8956 71.2502
5523 1 34.0331 22.5743 68.8738
6244 1 35.552 20.6665 69.3094
6323 1 35.6331 22.7263 70.6799
6401 1 0.727259 24.5843 67.1978
2529 1 2.77045 26.4362 67.3837
6855 1 0.902567 28.0982 66.798
6403 1 2.40103 26.1333 70.9975
5731 1 2.61608 24.6796 68.8331
2544 1 0.900127 26.7317 68.8026
7122 1 0.574006 24.2822 70.6306
1037 1 4.32313 24.2456 67.2867
5006 1 4.80953 28.2121 67.346
4862 1 5.59811 26.1506 67.4329
7922 1 4.43321 24.0767 70.9788
7203 1 4.44291 26.2077 69.4001
722 1 5.77821 25.9138 71.2267
7202 1 4.52146 28.0404 71.2066
7508 1 6.21427 28.1832 69.4538
2557 1 7.79498 26.1494 69.3254
7842 1 7.72919 24.1292 71.3495
1 1 9.69151 25.6977 71.0022
7844 1 9.39981 24.0523 69.3594
1522 1 11.5741 24.0243 70.802
79 1 9.63144 28.0499 69.6737
801 1 11.6653 26.0483 69.0495
2326 1 13.2891 25.5438 70.5739
2322 1 15.2055 24.3855 70.7579
1524 1 13.2813 24.0482 68.6686
641 1 15.5273 24.6521 67.8348
7836 1 15.5893 26.528 69.3043
1681 1 13.5851 28.1003 69.3576
4797 1 17.4017 24.1576 69.1431
1603 1 17.093 25.8669 71.1414
2324 1 19.2427 24.5048 71.2411
4078 1 18.8656 26.2471 69.6133
3117 1 19.1908 28.2932 71.4854
696 1 23.0431 24.5586 67.2653
3828 1 20.9774 25.9065 67.519
2786 1 22.802 26.47 69.4193
3122 1 21.1143 26.2805 71.1827
2403 1 20.6558 24.6089 69.6048
3922 1 22.4887 24.4559 71.0356
3203 1 24.6193 25.8949 71.0129
4001 1 24.6554 24.6379 69.409
4722 1 26.5051 24.5302 70.8162
4077 1 26.2188 26.1056 69.0683
4003 1 27.8477 26.3552 71.0476
2551 1 28.4387 24.4526 68.8342
4002 1 26.2153 28.0212 70.7484
4801 1 27.9917 26.5305 67.37
4404 1 30.3506 28.0918 67.3068
7029 1 30.5444 25.974 68.7844
5666 1 30.2137 25.0475 70.875
4803 1 32.2147 26.2125 70.6867
4802 1 30.1323 27.8922 71.006
3914 1 31.9656 27.8989 68.8975
2855 1 35.5184 26.1816 67.2544
2476 1 33.8544 28.1961 67.2184
7570 1 33.8243 24.5688 66.7214
4121 1 32.1962 24.215 69.172
7196 1 33.6878 26.3612 68.9827
6322 1 33.9976 24.3499 70.7773
5603 1 35.7303 26.1133 70.758
6324 1 35.5422 24.4284 68.9735
7283 1 2.76322 29.8364 67.188
7198 1 3.05923 28.2013 69.4003
5683 1 1.13825 29.608 68.8818
6483 1 2.55156 30.0169 71.1722
6402 1 1.07896 28.0362 71.0478
7281 1 2.75568 31.6707 68.9014
6482 1 0.702798 31.605 70.6284
7918 1 6.71726 29.9406 67.3751
7199 1 4.4313 30.1302 69.2024
2 1 6.29355 29.938 71.3283
82 1 6.29864 31.542 69.0794
7282 1 4.53369 31.5863 71.0375
702 1 4.72218 31.8889 67.485
81 1 7.58458 27.8947 71.1362
7924 1 8.00732 29.735 69.3078
83 1 9.96957 30.0158 70.8936
802 1 11.8673 27.6987 71.1248
881 1 11.9863 29.8767 69.4554
7431 1 9.58676 31.6734 69.4535
7363 1 7.80774 31.6852 71.0329
4297 1 15.2968 31.4097 67.2746
882 1 11.7429 32.2389 70.6602
1602 1 15.4106 27.8485 71.0456
883 1 14.139 29.9124 70.8839
2542 1 15.5476 29.6695 69.1845
1682 1 15.7584 32.1089 70.9376
4616 1 13.76 31.6797 69.1653
1604 1 17.31 28.0384 69.6858
1683 1 16.994 29.9965 71.552
4798 1 19.0546 29.7179 69.1685
1684 1 17.0851 31.5768 68.9722
2485 1 18.6121 31.4659 70.6777
3202 1 22.9042 27.9187 71.3167
3281 1 20.5593 27.7569 69.4042
2483 1 21.0489 29.8711 71.3139
4081 1 22.4418 29.6068 69.4353
1976 1 20.9415 31.5358 69.4644
3282 1 22.709 31.5669 70.8933
2845 1 26.4848 31.7735 67.9497
2468 1 28.4427 27.9406 69.0233
1677 1 24.3905 31.5898 69.3376
3204 1 26.3511 31.9046 70.4288
3283 1 24.5524 29.7185 71.0743
7325 1 24.4892 28.1737 69.3819
716 1 26.4164 29.8537 69.1193
4881 1 30.1249 31.7081 70.7426
58 1 28.4238 31.907 69.234
4877 1 31.9701 31.9528 68.9831
4882 1 28.3595 29.6225 70.9089
4004 1 29.9572 29.7985 69.3324
4883 1 31.8404 29.89 70.7699
3590 1 35.9481 29.7123 67.4136
5521 1 34.1987 32.4054 67.6295
6481 1 35.1694 27.9729 69.2457
4968 1 33.7851 31.9017 70.9039
5602 1 33.7094 28.3435 70.8981
6562 1 35.976 31.5606 68.8578
5763 1 35.619 29.637 70.7123
5682 1 33.7938 30.0092 69.0392
73 1 2.56337 33.9232 67.1204
5768 1 0.882044 35.4751 70.815
161 1 2.52687 35.7213 68.9782
5764 1 1.23038 33.5688 69.0911
6563 1 2.52192 33.3852 71.0858
5186 1 4.34754 35.817 67.3479
1266 1 6.08335 33.6348 67.5421
7362 1 4.06255 35.4803 71.1952
7899 1 6.18061 35.3155 69.2846
7364 1 3.97757 33.8105 69.2807
162 1 6.08711 33.6565 71.0955
6469 1 8.96576 33.8133 67.4006
961 1 11.2041 35.6673 67.5263
4692 1 7.77379 31.6847 67.2994
6145 1 7.73926 33.6713 69.3257
7830 1 7.51552 35.8457 67.2077
7443 1 7.8039 35.4185 71.3071
7759 1 9.55347 35.7905 69.0904
163 1 9.64675 33.9274 70.9583
7439 1 10.752 33.795 68.9398
962 1 11.7112 35.5411 70.8385
5096 1 12.7156 31.1604 54.1798
3677 1 28.4424 9.81122 54.8218
2466 1 1.28489 20.4005 53.9252
3111 1 9.64839 8.96981 53.9672
5568 1 0.47875 9.11251 53.8604
1978 1 26.549 10.8326 54.0173
366 1 26.6703 14.9376 54.0174
5192 1 23.8792 17.5828 54.2605
3579 1 32.1902 14.3854 54.6789
6201 1 13.369 35.1042 53.769
4478 1 18.424 6.17759 54.4765
68 1 -0.414561 0.511045 54.5689
2048 1 2.3267 28.8471 53.7822
3834 1 6.62922 30.704 54.2254
5315 1 26.4561 21.3816 54.0795
3101 1 2.54146 33.3503 53.9195
7320 1 34.6442 8.16402 54.4217
1608 1 17.3142 27.865 72.7458
4168 1 28.5752 35.3345 72.3362
5759 1 2.01552 0.380284 53.894
6707 1 0.195905 3.8647 54.3966
6528 1 22.753 4.71077 53.8709
4391 1 14.3127 19.6806 54.1329
3115 1 7.98938 26.1223 53.8153
1189 1 14.4941 7.62385 53.9402
5836 1 32.1086 30.0403 54.1062
6928 1 28.5516 21.694 53.8364
704 1 32.5835 2.16256 54.3607
4709 1 11.4168 33.1043 53.8707
